 vasp.5.4.4.18Apr17-6-g9f103f2a35 (build Feb 25 2019 10:51:38) complex

 executed on             LinuxIFC date 2021.03.09  15:31:39

 INCAR:
 POTCAR:    PAW_PBE C 08Apr2002
 POTCAR:    PAW_PBE N 08Apr2002
 POTCAR:    PAW_PBE Fe 06Sep2000

 POTCAR:    PAW_PBE C 08Apr2002
   VRHFIN =C: s2p2

   TITEL  = PAW_PBE C 08Apr2002
   POMASS =   12.011; ZVAL   =    4.000    mass and valenz
   ENMAX  =  400.000; ENMIN  =  300.000 eV

 POTCAR:    PAW_PBE N 08Apr2002
   VRHFIN =N: s2p3

   TITEL  = PAW_PBE N 08Apr2002
   POMASS =   14.001; ZVAL   =    5.000    mass and valenz
   ENMAX  =  400.000; ENMIN  =  300.000 eV

 POTCAR:    PAW_PBE Fe 06Sep2000
   VRHFIN =Fe:  d7 s1

   TITEL  = PAW_PBE Fe 06Sep2000
   POMASS =   55.847; ZVAL   =    8.000    mass and valenz
   ENMAX  =  267.882; ENMIN  =  200.911 eV

  PAW_PBE C 08Apr2002                   :
  PAW_PBE N 08Apr2002                   :
  PAW_PBE Fe 06Sep2000                  :

 POSCAR:  C  N Fe
  positions in cartesian coordinates
 exchange correlation table for  LEXCH =        8
   RHO(1)=    0.500       N(1)  =     2000
   RHO(2)=  100.500       N(2)  =     4000

 VTST: version 3.2, (02/03/18)

 CHAIN: initializing optimizer

 OPT: Using VASP Conjugate-Gradient optimizer
 CHAIN: Read ICHAIN            0

 POSCAR:  C  N Fe
  positions in cartesian coordinates

 ion  position               nearest neighbor table
   1  0.223  0.000  0.493-   3 1.43  19 1.43   4 1.44
   2  0.057  0.101  0.487-   3 1.43  37 1.43   7 1.44
   3  0.111  0.000  0.489-   1 1.43   2 1.43  17 1.43
   4  0.278  0.101  0.495-  21 1.42   5 1.44   1 1.44
   5  0.224  0.203  0.497-   7 1.43   4 1.44   8 1.45
   6  0.056  0.301  0.490-   7 1.43  41 1.43  11 1.43
   7  0.113  0.201  0.491-   6 1.43   5 1.43   2 1.44
   8  0.281  0.304  0.505-   5 1.45  25 1.45   9 1.47
   9  0.220  0.404  0.507-  54 1.38  11 1.43   8 1.47
  10  0.053  0.501  0.495-  45 1.43  14 1.43  11 1.44
  11  0.110  0.401  0.496-   9 1.43   6 1.43  10 1.44
  12  0.218  0.600  0.511-  54 1.38  14 1.43  15 1.45
  13  0.053  0.700  0.493-  14 1.42  49 1.43  18 1.43
  14  0.108  0.601  0.499-  13 1.42  12 1.43  10 1.43
  15  0.274  0.701  0.515-  16 1.43  12 1.45  29 1.47
  16  0.221  0.799  0.501-  15 1.43  18 1.43  19 1.44
  17  0.056  0.900  0.488-  53 1.43  18 1.43   3 1.43
  18  0.110  0.800  0.493-  17 1.43  16 1.43  13 1.43
  19  0.277  0.900  0.499-   1 1.43  31 1.43  16 1.44
  20  0.555  1.000  0.491-  33 1.42  22 1.42  23 1.42
  21  0.389  0.100  0.493-   4 1.42  26 1.43  22 1.43
  22  0.444  1.000  0.494-  20 1.42  21 1.43  31 1.43
  23  0.612  0.098  0.486-  24 1.42  20 1.42  35 1.43
  24  0.556  0.197  0.490-  23 1.42  27 1.42  26 1.42
  25  0.394  0.299  0.508-  55 1.39  26 1.43   8 1.45
  26  0.445  0.198  0.495-  24 1.42  21 1.43  25 1.43
  27  0.614  0.294  0.493-  28 1.40  24 1.42  39 1.42
  28  0.561  0.389  0.511-  55 1.37  56 1.38  27 1.40
  29  0.382  0.711  0.540-  57 1.35  15 1.47  32 1.48  60 2.51
  30  0.557  0.804  0.512-  58 1.38  33 1.43  32 1.44
  31  0.389  0.900  0.502-  32 1.43  22 1.43  19 1.43
  32  0.445  0.803  0.517-  31 1.43  30 1.44  29 1.48
  33  0.611  0.901  0.497-  20 1.42  30 1.43  51 1.43
  34  0.890  1.000  0.483-  53 1.43  36 1.43  37 1.44
  35  0.723  0.099  0.483-  36 1.42  23 1.43  40 1.43
  36  0.778  0.999  0.484-  35 1.42  51 1.43  34 1.43
  37  0.946  0.100  0.483-  38 1.43   2 1.43  34 1.44
  38  0.890  0.199  0.483-  40 1.42  37 1.43  41 1.43
  39  0.724  0.297  0.488-  27 1.42  40 1.42  44 1.43
  40  0.779  0.198  0.483-  39 1.42  38 1.42  35 1.43
  41  0.945  0.300  0.486-   6 1.43  38 1.43  42 1.43
  42  0.888  0.400  0.489-  44 1.42  45 1.43  41 1.43
  43  0.719  0.494  0.505-  56 1.39  44 1.43  48 1.46
  44  0.778  0.398  0.492-  42 1.42  39 1.43  43 1.43
  45  0.942  0.500  0.493-  42 1.43  10 1.43  46 1.44
  46  0.884  0.600  0.495-  45 1.44  49 1.44  48 1.45
  47  0.719  0.703  0.505-  58 1.37  52 1.43  48 1.46
  48  0.772  0.599  0.503-  46 1.45  47 1.46  43 1.46
  49  0.941  0.699  0.492-  50 1.42  13 1.43  46 1.44
  50  0.888  0.800  0.489-  49 1.42  52 1.42  53 1.44
  51  0.722  0.900  0.491-  33 1.43  52 1.43  36 1.43
  52  0.777  0.800  0.494-  50 1.42  51 1.43  47 1.43
  53  0.944  0.899  0.486-  34 1.43  17 1.43  50 1.44
  54  0.268  0.502  0.519-   9 1.38  12 1.38  59 1.95
  55  0.456  0.387  0.524-  28 1.37  25 1.39  59 1.94
  56  0.614  0.484  0.520-  28 1.38  43 1.39  60 1.88
  57  0.416  0.646  0.589-  29 1.35  60 1.80  59 1.88
  58  0.615  0.711  0.520-  47 1.37  30 1.38  60 1.87
  59  0.389  0.498  0.578-  57 1.88  55 1.94  54 1.95  60 2.33
  60  0.541  0.598  0.561-  57 1.80  58 1.87  56 1.88  59 2.33  29 2.51

  LATTYP: Found a simple orthorhombic cell.
 ALAT       =    12.4000000000
 B/A-ratio  =     1.0330645161
 C/A-ratio  =     1.6129032258

  Lattice vectors:

 A1 = (   0.0000000000, -12.4000000000,   0.0000000000)
 A2 = ( -12.8100000000,   0.0000000000,   0.0000000000)
 A3 = (   0.0000000000,   0.0000000000, -20.0000000000)

Analysis of symmetry for initial positions (statically):
 Subroutine PRICEL returns:
 Original cell was already a primitive cell.

 Routine SETGRP: Setting up the symmetry group for a
 simple orthorhombic supercell.

 Subroutine GETGRP returns: Found  1 space group operations
 (whereof  1 operations were pure point group operations)
 out of a pool of  8 trial point group operations.

The static configuration has the point symmetry C_1 .

Analysis of symmetry for dynamics (positions and initial velocities):
 Subroutine PRICEL returns:
 Original cell was already a primitive cell.

[...]

The dynamic configuration has the point symmetry C_1 .

Analysis of structural, dynamic, and magnetic symmetry:
 Subroutine PRICEL returns:
 Original cell was already a primitive cell.

 Routine SETGRP: Setting up the symmetry group for a
 simple orthorhombic supercell.

 Subroutine GETGRP returns: Found  1 space group operations
 (whereof  1 operations were pure point group operations)
 out of a pool of  8 trial point group operations.

The magnetic configuration has the point symmetry C_1 .

 Subroutine INISYM returns: Found  1 space group operations
 (whereof  1 operations are pure point group operations),
 and found     1 'primitive' translations

 KPOINTS: KPOINTS created by Atomic Simulation Env

Automatic generation of k-mesh.
Space group operators:
 irot       det(A)        alpha          n_x          n_y          n_z        tau_x        tau_y        tau_z
    1     1.000000     0.000000     1.000000     0.000000     0.000000     0.000000     0.000000     0.000000

 Subroutine IBZKPT returns following result:

 Found      2 irreducible k-points:

 Following reciprocal coordinates:
            Coordinates               Weight
  0.250000  0.250000  0.000000      2.000000
 -0.250000  0.250000  0.000000      2.000000

 Following cartesian coordinates:
            Coordinates               Weight
  0.019516  0.020161  0.000000      2.000000
 -0.019516  0.020161  0.000000      2.000000

 Subroutine IBZKPT_HF returns following result:

 Found      4 k-points in 1st BZ
 the following      4 k-points will be used (e.g. in the exchange kernel)
 Following reciprocal coordinates:   # in IRBZ
  0.250000  0.250000  0.000000    0.25000000   1 t-inv F
 -0.250000  0.250000  0.000000    0.25000000   2 t-inv F
 -0.250000 -0.250000  0.000000    0.25000000   1 t-inv T
  0.250000 -0.250000  0.000000    0.25000000   2 t-inv T

 SYSTEM =  unknown system
 POSCAR =   C  N Fe

 Startparameter for this run:
   NWRITE =      2    write-flag & timer
   PREC   = accura    normal or accurate (medium, high low for compatibility)
   ISTART =      1    job   : 0-new  1-cont  2-samecut
   ICHARG =      0    charge: 1-file 2-atom 10-const
   ISPIN  =      2    spin polarized calculation?
   LNONCOLLINEAR =      F non collinear calculations
   LSORBIT =      F    spin-orbit coupling
   INIWAV =      1    electr: 0-lowe 1-rand  2-diag
   LASPH  =      T    aspherical Exc in radial PAW
   METAGGA=      F    non-selfconsistent MetaGGA calc.

 Electronic Relaxation 1
   ENCUT  =  500.0 eV  36.75 Ry    6.06 a.u.  23.36 22.61 36.46*2*pi/ulx,y,z
   ENINI  =  500.0     initial cutoff
   ENAUG  =  644.9 eV  augmentation charge cutoff
   NELM   =    250;   NELMIN=  2; NELMDL=  0     # of ELM steps
   EDIFF  = 0.1E-03   stopping-criterion for ELM
   LREAL  =      F    real-space projection
   NLSPLINE    = F    spline interpolate recip. space projectors
   LCOMPAT=      F    compatible to vasp.4.4
   GGA_COMPAT  = T    GGA compatible to vasp.4.4-vasp.4.6
   LMAXPAW     = -100 max onsite density
   LMAXMIX     =    2 max onsite mixed and CHGCAR
   VOSKOWN=      0    Vosko Wilk Nusair interpolation
   ROPT   =    0.00000   0.00000   0.00000
 Ionic relaxation
   EDIFFG = -.3E-01   stopping-criterion for IOM
   NSW    =      0    number of steps for IOM
   NBLOCK =      1;   KBLOCK =      1    inner block; outer block
   IBRION =     -1    ionic relax: 0-MD 1-quasi-New 2-CG
   NFREE  =      1    steps in history (QN), initial steepest desc. (CG)
   ISIF   =      2    stress and relaxation
   IWAVPR =     10    prediction:  0-non 1-charg 2-wave 3-comb
   ISYM   =      3    0-nonsym 1-usesym 2-fastsym
   LCORR  =      T    Harris-Foulkes like correction to forces

   POTIM  = 0.5000    time-step for ionic-motion
   TEIN   =    0.0    initial temperature
   TEBEG  =    0.0;   TEEND  =   0.0 temperature during run
   SMASS  =  -3.00    Nose mass-parameter (am)
   estimated Nose-frequenzy (Omega)   =  0.10E-29 period in steps =****** mass=  -0.375E-26a.u.
   SCALEE = 1.0000    scale energy and forces
   NPACO  =    256;   APACO  = 16.0  distance and # of slots for P.C.
   PSTRESS=    0.0 pullay stress

  Mass of Ions in am
   POMASS =  12.01 14.00 55.85
  Ionic Valenz
   ZVAL   =   4.00  5.00  8.00
  Atomic Wigner-Seitz radii
  virtual crystal weights
   VCA    =   1.00  1.00  1.00
   NELECT =     253.0000    total number of electrons
   NUPDOWN=      -1.0000    fix difference up-down

 DOS related values:
   EMIN   =  10.00;   EMAX   =-10.00  energy-range for DOS
   EFERMI =   0.00
   ISMEAR =     0;   SIGMA  =   0.10  broadening in eV -4-tet -1-fermi 0-gaus

 Electronic relaxation 2 (details)
   IALGO  =     53    algorithm
   LDIAG  =      T    sub-space diagonalisation (order eigenvalues)
   LSUBROT=      F    optimize rotation matrix (better conditioning)
   TURBO    =      0    0=normal 1=particle mesh
   IRESTART =      0    0=no restart 2=restart with 2 vectors
   NREBOOT  =      0    no. of reboots
   NMIN     =      0    reboot dimension
   EREF     =   0.00    reference energy to select bands
   IMIX   =      4    mixing-type and parameters
     AMIX     =   0.40;   BMIX     =  1.00
     AMIX_MAG =   1.60;   BMIX_MAG =  1.00
     AMIN     =   0.10
     WC   =   100.;   INIMIX=   1;  MIXPRE=   1;  MAXMIX= -45

 Intra band minimization:
   WEIMIN = 0.0000     energy-eigenvalue tresh-hold
   EBREAK =  0.16E-06  absolut break condition
   DEPER  =   0.30     relativ break condition

   TIME   =   0.20     timestep for ELM

  volume/ion in A,a.u.               =      52.95       357.31
[...]
   48        0.847   1.742   0.000   2.589
   49        0.862   1.770   0.000   2.632
   50        0.867   1.765   0.000   2.632
   51        0.868   1.763   0.000   2.631
   52        0.866   1.781   0.000   2.647
   53        0.865   1.770   0.000   2.635
   54        1.232   2.691   0.000   3.923
   55        1.229   2.693   0.000   3.922
   56        1.232   2.695   0.000   3.926
   57        1.260   2.573   0.000   3.834
   58        1.233   2.694   0.000   3.927
   59        0.441   0.535   6.222   7.197
   60        0.487   0.649   6.379   7.515
tot         52.877 107.737  12.601 173.215

 magnetization (x)

[...]

  FORCE on cell =-STRESS in cart. coord.  units (eV):
  Direction    XX          YY          ZZ          XY          YZ          ZX
  Alpha Z   109.02222   109.02222   109.02222
  Ewald   49207.51462 49226.39582-57277.43128    60.81877    39.94074  -131.95772
  Hartree 48772.76230 48805.99461-47633.15872    37.02048    56.86270   -99.26909
  E(xc)    -740.71981  -740.53891  -754.34485    -0.09170     0.08564    -0.02444
  Local  ************************101717.57713   -97.09232   -99.28312   229.17610
  n-local  -170.61228  -168.52045  -160.78539     1.28865    -0.15319    -0.36130
  augment    51.31460    50.03042    56.63663     1.20425    -2.00122     1.88344
  Kinetic  3774.21498  3770.63236  4261.15845    -9.73935     2.49433     2.48716
  Fock     -343.05076  -341.47215  -320.66256    -1.54395     3.04179    -2.57966
  Total     -34.89705   -39.08047    -1.98837    -8.13518     0.98767    -0.64550
  in kB     -17.59943   -19.70923    -1.00278    -4.10277     0.49810    -0.32554

 VOLUME and BASIS-vectors are now :
  energy-cutoff  :      500.00
  volume of cell :     3176.88
      direct lattice vectors                 reciprocal lattice vectors
    12.810000000  0.000000000  0.000000000     0.078064012  0.000000000  0.000000000
     0.000000000 12.400000000  0.000000000     0.000000000  0.080645161  0.000000000
     0.000000000  0.000000000 20.000000000     0.000000000  0.000000000  0.050000000

  length of vectors
    12.810000000 12.400000000 20.000000000     0.078064012  0.080645161  0.050000000

 FORCES acting on ions:
    Electron-Ion                     Ewald-Force                    Non-Local-Force
   0.463E+01 -.486E+01 0.305E+02   -.457E+01 0.450E+01 -.306E+02   -.859E-02 0.229E+00 0.103E+00
   -.116E+01 -.192E+01 0.418E+02   0.138E+01 0.178E+01 -.418E+02   -.222E+00 0.104E+00 0.636E-01
   0.439E+01 -.476E+00 0.382E+02   -.435E+01 0.408E+00 -.381E+02   -.760E-01 0.606E-01 -.885E-01
   0.136E+02 0.226E+01 0.245E+02   -.138E+02 -.240E+01 -.243E+02   0.273E+00 0.167E+00 -.217E+00
   0.649E+01 0.383E+01 0.178E+02   -.652E+01 -.393E+01 -.179E+02   0.591E-01 0.813E-01 0.993E-01
   0.252E+01 0.639E+01 0.394E+02   -.246E+01 -.679E+01 -.394E+02   -.468E-01 0.358E+00 0.785E-01
   0.337E+01 0.720E+01 0.305E+02   -.337E+01 -.736E+01 -.304E+02   -.338E-01 0.175E+00 -.694E-01
   0.172E+02 0.170E+02 0.140E+01   -.175E+02 -.171E+02 -.154E+01   0.307E+00 0.193E-01 0.118E+00
   0.235E+02 0.498E+02 0.168E+02   -.252E+02 -.524E+02 -.177E+02   0.165E+01 0.291E+01 0.875E+00
   0.128E+02 0.340E+01 0.340E+02   -.130E+02 -.323E+01 -.339E+02   0.203E+00 -.123E+00 -.673E-01
   0.155E+02 0.126E+02 0.349E+02   -.158E+02 -.129E+02 -.350E+02   0.304E+00 0.238E+00 0.965E-01
   0.271E+02 -.371E+02 0.128E+02   -.285E+02 0.406E+02 -.134E+02   0.138E+01 -.351E+01 0.544E+00
   0.738E+01 -.735E+01 0.410E+02   -.745E+01 0.769E+01 -.410E+02   0.500E-01 -.292E+00 -.429E-01
   0.174E+02 -.761E+01 0.359E+02   -.175E+02 0.800E+01 -.360E+02   0.672E-01 -.394E+00 0.140E+00
   0.166E+02 -.131E+02 0.514E+01   -.159E+02 0.130E+02 -.519E+01   -.940E+00 0.392E-01 -.469E-01
   0.102E+02 -.136E+02 0.336E+02   -.100E+02 0.134E+02 -.337E+02   -.224E+00 0.117E+00 0.185E+00
   0.305E+00 -.509E+01 0.475E+02   -.113E+00 0.516E+01 -.476E+02   -.191E+00 -.191E-01 0.816E-01
   0.558E+01 -.564E+01 0.456E+02   -.546E+01 0.569E+01 -.456E+02   -.136E+00 -.709E-01 0.517E-01
   0.104E+02 -.692E+01 0.231E+02   -.106E+02 0.701E+01 -.227E+02   0.664E-01 0.395E-01 -.379E+00
   0.309E-01 -.369E+01 0.496E+02   -.361E+00 0.365E+01 -.494E+02   0.304E+00 0.170E-01 -.199E+00
   0.606E+01 0.494E+01 0.434E+02   -.657E+01 -.538E+01 -.434E+02   0.456E+00 0.431E+00 0.117E+00
   0.597E+01 -.209E+01 0.460E+02   -.615E+01 0.182E+01 -.461E+02   0.200E+00 0.253E+00 0.117E+00
   -.556E+01 0.673E+01 0.670E+02   0.568E+01 -.709E+01 -.671E+02   -.108E+00 0.382E+00 0.202E+00
   -.843E+00 0.158E+02 0.619E+02   0.790E+00 -.163E+02 -.616E+02   0.928E-01 0.528E+00 -.163E+00
   0.376E+02 0.386E+02 0.116E+02   -.397E+02 -.416E+02 -.127E+02   0.223E+01 0.295E+01 0.109E+01
   0.946E+01 0.180E+02 0.463E+02   -.979E+01 -.186E+02 -.465E+02   0.275E+00 0.532E+00 0.146E+00
   -.147E+02 0.216E+02 0.739E+02   0.153E+02 -.224E+02 -.745E+02   -.517E+00 0.718E+00 0.676E+00
   -.217E+02 0.344E+02 0.217E+02   0.235E+02 -.375E+02 -.234E+02   -.183E+01 0.309E+01 0.179E+01
   0.393E+02 -.648E+02 -.667E+02   -.399E+02 0.655E+02 0.661E+02   0.920E+00 -.127E+01 0.137E+01
   0.147E+02 -.446E+02 -.248E+01   -.170E+02 0.472E+02 0.166E+01   0.246E+01 -.271E+01 0.828E+00
   0.786E+01 -.118E+02 0.265E+02   -.791E+01 0.113E+02 -.266E+02   0.160E+00 0.387E+00 0.137E+00
   0.620E+01 -.215E+02 -.105E+02   -.651E+01 0.208E+02 0.107E+02   0.357E+00 0.890E+00 -.291E+00
   -.544E+01 -.149E+02 0.369E+02   0.525E+01 0.150E+02 -.371E+02   0.175E+00 -.857E-01 0.224E+00
   -.551E+01 -.300E+01 0.538E+02   0.566E+01 0.296E+01 -.538E+02   -.180E+00 0.279E-01 -.172E-02
   -.692E+01 0.189E+01 0.642E+02   0.698E+01 -.198E+01 -.640E+02   -.838E-01 0.889E-01 -.106E+00
   -.757E+01 -.568E-01 0.570E+02   0.782E+01 0.103E+00 -.572E+02   -.208E+00 -.878E-02 0.121E+00
   -.300E+01 0.305E+01 0.532E+02   0.323E+01 -.314E+01 -.532E+02   -.198E+00 0.769E-01 0.604E-01
   -.731E+01 0.234E+01 0.573E+02   0.751E+01 -.243E+01 -.572E+02   -.219E+00 0.109E+00 -.272E-01
   -.172E+02 0.854E+01 0.650E+02   0.178E+02 -.867E+01 -.649E+02   -.588E+00 0.159E+00 -.548E-01
   -.915E+01 0.765E+01 0.680E+02   0.943E+01 -.787E+01 -.681E+02   -.252E+00 0.201E+00 0.148E+00
   -.259E+01 0.348E+01 0.516E+02   0.268E+01 -.359E+01 -.517E+02   -.742E-01 0.799E-01 0.970E-01
   -.903E+01 0.306E+01 0.474E+02   0.941E+01 -.293E+01 -.474E+02   -.361E+00 -.951E-01 0.665E-01
   -.535E+02 -.126E+02 0.175E+02   0.572E+02 0.130E+02 -.182E+02   -.379E+01 -.459E+00 0.713E+00
   -.201E+02 0.299E+01 0.503E+02   0.205E+02 -.300E+01 -.505E+02   -.370E+00 -.314E-01 0.141E+00
   0.293E+00 -.206E+01 0.347E+02   -.378E+00 0.223E+01 -.346E+02   0.907E-01 -.194E+00 -.617E-01
   -.367E+01 -.209E+01 0.261E+02   0.355E+01 0.223E+01 -.261E+02   0.821E-01 -.112E+00 0.188E-01
   -.535E+02 0.491E+01 0.168E+02   0.566E+02 -.497E+01 -.174E+02   -.351E+01 0.239E+00 0.689E+00
   -.182E+02 -.103E+01 0.616E+01   0.183E+02 0.116E+01 -.599E+01   0.490E-01 -.189E+00 -.183E+00
   -.977E+00 0.926E+00 0.374E+02   0.109E+01 -.928E+00 -.373E+02   -.830E-01 0.432E-02 -.400E-01
   -.767E+01 -.544E+01 0.462E+02   0.794E+01 0.536E+01 -.462E+02   -.322E+00 0.773E-01 0.105E+00
   -.116E+02 -.104E+02 0.421E+02   0.117E+02 0.105E+02 -.419E+02   -.133E+00 -.147E+00 -.186E+00
   -.172E+02 -.571E+01 0.415E+02   0.176E+02 0.578E+01 -.417E+02   -.347E+00 -.882E-02 0.189E+00
   -.189E+01 -.588E+00 0.500E+02   0.209E+01 0.571E+00 -.500E+02   -.163E+00 0.164E-01 0.120E-01
   -.170E+01 0.557E+01 -.760E+01   0.229E+02 -.485E+01 0.109E+02   -.203E+02 -.855E+00 -.339E+01
   0.257E+02 0.146E+02 -.586E+02   -.347E+02 0.192E+01 0.647E+02   0.869E+01 -.159E+02 -.609E+01
   -.338E+02 -.119E+02 -.398E+02   0.245E+02 0.281E+02 0.460E+02   0.904E+01 -.155E+02 -.613E+01
   0.577E+02 -.928E+02 -.537E+03   -.548E+02 0.896E+02 0.560E+03   -.299E+01 0.381E+01 -.213E+02
   -.232E+02 -.662E+01 -.417E+02   0.140E+02 -.939E+01 0.473E+02   0.917E+01 0.154E+02 -.573E+01
   0.906E+02 0.136E+03 -.671E+03   -.897E+02 -.132E+03 0.666E+03   -.154E+01 -.454E+01 0.564E+01
   -.134E+03 -.345E+01 -.460E+03   0.135E+03 0.483E+01 0.459E+03   -.371E+00 -.134E+01 0.198E+01
   0.155E+01 0.137E+02 0.288E+02   0.142E-12 0.213E-12 0.000E+00   -.135E+01 -.129E+02 -.257E+02

 POSITION                                       TOTAL-FORCE (eV/Angst)
      2.85140      0.00361      9.86421         0.044648     -0.125477      0.031563
      0.73526      1.24718      9.73602        -0.008161     -0.036619      0.030887
      1.42830      0.00108      9.77598        -0.044064     -0.000268      0.019997
      3.56031      1.25710      9.89076         0.055338      0.027234     -0.005360
      2.87487      2.52001      9.93368         0.026228     -0.012963      0.016398
      0.72010      3.72699      9.80812         0.009020     -0.025600      0.018847
      1.44555      2.49716      9.82152        -0.038689      0.028210      0.000264
      3.59682      3.76997     10.10968         0.004408     -0.130843     -0.016050
      2.82234      5.01524     10.14080        -0.017281      0.464246      0.055872
      0.68088      6.21161      9.90746         0.032437      0.044478      0.030534
      1.40884      4.97440      9.92878         0.029766     -0.035878      0.010953
      2.79160      7.44245     10.22189         0.039302     -0.150943      0.022246
      0.67891      8.68196      9.86693        -0.020004      0.028946      0.031685
      1.38695      7.45077      9.97115        -0.003855     -0.017253      0.043451
      3.51292      8.69413     10.30265        -0.286441      0.038364     -0.099513
      2.83024      9.91296     10.01072        -0.004593     -0.137222      0.105306
      0.71162     11.15862      9.75607        -0.012769      0.041920      0.042556
      1.40716      9.91574      9.85016        -0.022750     -0.022058      0.039094
      3.55102     11.16372      9.97528        -0.074440      0.137521     -0.012143
      7.11057     12.39385      9.82338        -0.007522     -0.022898      0.038983
      4.97820      1.23486      9.86538        -0.037314      0.018696      0.040526
      5.68870     12.39666      9.87723         0.034776     -0.004620      0.037149
      7.83500      1.21487      9.71872         0.000083      0.043080      0.048839
      7.12749      2.43791      9.80163         0.048826      0.013280      0.061096
      5.04883      3.70239     10.16222         0.248028      0.130913      0.037804
      5.70680      2.46094      9.90971        -0.034613     -0.010232      0.050059
      7.86193      3.64772      9.85252         0.059988     -0.052220      0.062223
      7.18321      4.82138     10.21586        -0.057819      0.209639      0.198619
      4.88933      8.81379     10.79150         0.368915     -0.585046      0.841074
      7.13366      9.96739     10.23612         0.220355     -0.251603      0.047896
      4.98251     11.16214     10.03787         0.121221     -0.085951      0.084612
      5.69518      9.96177     10.33502         0.055431      0.240650     -0.082826
      7.82672     11.17485      9.93052        -0.006466      0.084086      0.039417
     11.39809     12.39500      9.66817        -0.040159     -0.012851      0.030299
      9.26022      1.22347      9.66159        -0.020765      0.003055      0.053433
      9.96986     12.38993      9.68687         0.031495      0.040540      0.022544
     12.11863      1.23638      9.66425         0.019599      0.000268      0.028709
     11.40648      2.47152      9.65949        -0.030236      0.015435      0.039066
      9.27566      3.68306      9.75502        -0.072015      0.027447      0.066383
      9.98234      2.45752      9.65334         0.018135     -0.001426      0.041613
     12.10461      3.71927      9.72496         0.013149     -0.026808      0.027917
     11.38119      4.95400      9.78680        -0.011612      0.033053      0.042360
      9.21431      6.12679     10.09964        -0.354233     -0.125992      0.060768
      9.95979      4.93253      9.84634         0.058966     -0.037475     -0.000052
     12.06426      6.20464      9.85591         0.011431     -0.035750      0.010422
     11.32164      7.43465      9.90843        -0.027369      0.021545      0.029056
      9.21305      8.71576     10.10641        -0.632831      0.212013      0.121175
      9.88328      7.42372     10.06227         0.139751     -0.071979     -0.026846
     12.05789      8.66975      9.83985         0.029365      0.008889      0.015949
     11.37021      9.91542      9.78588        -0.065438     -0.006642      0.046307
      9.24863     11.16451      9.82100        -0.053131     -0.066003      0.027269
      9.94892      9.92177      9.87453         0.113649      0.066996      0.011349
     12.09524     11.15237      9.71576         0.031152      0.005795      0.017428
      3.42709      6.22688     10.38708        -0.888862     -0.215079     -0.408796
      5.83698      4.80373     10.47734         0.470852     -0.763588     -0.476452
      7.86866      5.99881     10.40219         0.578407     -0.657229     -0.405109
      5.33404      8.01105     11.78577        -0.436691      0.939843     -0.926418
      7.87406      8.81060     10.40337         0.758554      0.721240     -0.583773
      4.98652      6.17384     11.55519        -0.232075      0.041151      0.152910
      6.93005      7.41131     11.21543        -0.131078      0.039981      0.110431
    total drift:                                0.002143     -0.000200      0.004265

  FREE ENERGIE OF THE ION-ELECTRON SYSTEM (eV)
  free  energy   TOTEN  =      -631.43248403 eV

  energy  without entropy=     -631.43241394  energy(sigma->0) =     -631.43244898

 stress matrix after NEB project (eV)
    -34.89705     -8.13575     -0.64550
     -8.13518    -39.08047      0.98400
     -0.64359      0.98767     -1.98837
  FORCES: max atom, RMS     1.390055    0.391812
  FORCE total and by dimension    3.034964    0.939843
  Stress total and by dimension   53.704628   39.080470
 writing wavefunctions
 vacuum level on the upper side and lower side of the slab         1.518         1.559

 total charge

[...]

 magnetization (x)

# of ion       s       p       d       tot
    1       -0.000  -0.006   0.000  -0.007
    2       -0.000  -0.004   0.000  -0.004
    3        0.000   0.002   0.000   0.002
    4        0.000   0.003   0.000   0.003
    5        0.000  -0.001   0.000  -0.001
    6       -0.000  -0.005   0.000  -0.005
    7       -0.000  -0.001   0.000  -0.001
    8       -0.001  -0.007   0.000  -0.008
    9       -0.001  -0.004   0.000  -0.005
   10       -0.000  -0.006   0.000  -0.006
   11       -0.001  -0.002   0.000  -0.003
   12       -0.002  -0.015   0.000  -0.017
   13       -0.001  -0.011   0.000  -0.012
   14        0.000   0.004   0.000   0.004
   15        0.001   0.008   0.000   0.009
   16       -0.001  -0.008   0.000  -0.009
   17       -0.000  -0.004   0.000  -0.005
   18        0.000   0.003   0.000   0.003
   19        0.001   0.007   0.000   0.008
   20       -0.001  -0.009   0.000  -0.010
   21       -0.000  -0.005   0.000  -0.005
   22        0.000   0.003   0.000   0.003
   23        0.000   0.003   0.000   0.004
   24       -0.000  -0.003   0.000  -0.003
   25       -0.001  -0.006   0.000  -0.008
   26        0.000   0.003   0.000   0.004
   27        0.000   0.004   0.000   0.004
   28       -0.000  -0.008   0.000  -0.008
   29       -0.002  -0.048   0.000  -0.049
   30       -0.001  -0.016   0.000  -0.018
   31       -0.001  -0.007   0.000  -0.008
   32        0.001   0.012   0.000   0.014
   33        0.001   0.007   0.000   0.008
   34       -0.001  -0.009   0.000  -0.010
   35       -0.001  -0.007   0.000  -0.007
   36        0.000   0.004   0.000   0.005
   37        0.000   0.002   0.000   0.003
   38       -0.001  -0.008   0.000  -0.008
   39       -0.001  -0.015   0.000  -0.016
   40        0.001   0.005   0.000   0.006
   41        0.000   0.004   0.000   0.004
   42       -0.000  -0.006   0.000  -0.007
   43       -0.001  -0.020   0.000  -0.021
   44        0.001   0.006   0.000   0.007
   45        0.000   0.004   0.000   0.005
   46       -0.001  -0.008   0.000  -0.008
   47       -0.001  -0.017   0.000  -0.018
   48        0.001   0.009   0.000   0.011
   49        0.000   0.004   0.000   0.004
   50       -0.001  -0.008   0.000  -0.008
   51       -0.001  -0.007   0.000  -0.007
   52        0.001   0.006   0.000   0.006
   53        0.000   0.004   0.000   0.004
   54       -0.008  -0.040   0.000  -0.048
   55        0.002   0.007   0.000   0.009
   56       -0.004  -0.008   0.000  -0.012
   57       -0.000  -0.013   0.000  -0.014
   58        0.003   0.011   0.000   0.014
   59       -0.026  -0.049  -3.131  -3.206
   60        0.058   0.071   2.506   2.635
tot          0.017  -0.194  -0.624  -0.801