 vasp.5.4.4.18Apr17-6-g9f103f2a35 (build Feb 25 2019 10:51:38) complex

 executed on             LinuxIFC date 2021.08.09  12:28:45

 INCAR:
 POTCAR:    PAW_PBE C 08Apr2002
 POTCAR:    PAW_PBE N 08Apr2002
 POTCAR:    PAW_PBE Fe 06Sep2000
 POTCAR:    PAW_PBE Ti 08Apr2002

 POTCAR:    PAW_PBE C 08Apr2002
   VRHFIN =C: s2p2

   TITEL  = PAW_PBE C 08Apr2002
   POMASS =   12.011; ZVAL   =    4.000    mass and valenz
   ENMAX  =  400.000; ENMIN  =  300.000 eV

 POTCAR:    PAW_PBE N 08Apr2002
   VRHFIN =N: s2p3

[...]

 POTCAR:    PAW_PBE Fe 06Sep2000
   VRHFIN =Fe:  d7 s1

   TITEL  = PAW_PBE Fe 06Sep2000
   POMASS =   55.847; ZVAL   =    8.000    mass and valenz
   ENMAX  =  267.882; ENMIN  =  200.911 eV

 POTCAR:    PAW_PBE Ti 08Apr2002
   VRHFIN =Ti: d3 s1

   TITEL  = PAW_PBE Ti 08Apr2002
   POMASS =   47.880; ZVAL   =    4.000    mass and valenz
   ENMAX  =  178.330; ENMIN  =  133.747 eV

  PAW_PBE C 08Apr2002                   :
  PAW_PBE N 08Apr2002                   :
  PAW_PBE Fe 06Sep2000                  :
  PAW_PBE Ti 08Apr2002                  :

 POSCAR:  C  N Fe Ti
  positions in cartesian coordinates
 exchange correlation table for  LEXCH =        8
   RHO(1)=    0.500       N(1)  =     2000
   RHO(2)=  100.500       N(2)  =     4000

 VTST: version 3.2, (02/03/18)

 CHAIN: initializing optimizer

 OPT: Using VASP Conjugate-Gradient optimizer
 CHAIN: Read ICHAIN            0

 POSCAR:  C  N Fe Ti
  positions in cartesian coordinates

 ion  position               nearest neighbor table
   1  0.221  0.998  0.500-   4 1.42   3 1.43  19 1.43
   2  0.053  0.100  0.500-   7 1.42  34 1.43   3 1.43
   3  0.110  1.000  0.500-  17 1.42   1 1.43   2 1.43
   4  0.275  0.098  0.499-   1 1.42   5 1.43  21 1.43
   5  0.217  0.198  0.499-   8 1.41   7 1.42   4 1.43
   6  0.051  0.301  0.500-   7 1.42  11 1.43  38 1.43
   7  0.106  0.200  0.500-   6 1.42   2 1.42   5 1.42
   8  0.272  0.296  0.498-  51 1.37   5 1.41   9 1.43
   9  0.218  0.398  0.499-  50 1.39  11 1.41   8 1.43
  10  0.055  0.501  0.500-  11 1.42  41 1.42  14 1.45
  11  0.108  0.399  0.500-   9 1.41  10 1.42   6 1.43
  12  0.227  0.594  0.500-  50 1.38  14 1.44  15 1.48
  13  0.059  0.700  0.500-  18 1.42  14 1.43  45 1.43
  14  0.115  0.599  0.500-  13 1.43  12 1.44  10 1.45
  15  0.288  0.695  0.501-  53 1.40  16 1.45  12 1.48
  16  0.227  0.796  0.500-  19 1.43  18 1.44  15 1.45
  17  0.057  0.900  0.500-   3 1.42  49 1.43  18 1.44
  18  0.114  0.799  0.500-  13 1.42  17 1.44  16 1.44
  19  0.279  0.897  0.500-  28 1.43   1 1.43  16 1.43
  20  0.554  0.003  0.499-  30 1.42  22 1.43  23 1.44
  21  0.386  0.099  0.499-  22 1.42   4 1.43  25 1.44
  22  0.443  1.000  0.499-  21 1.42  20 1.43  28 1.44
  23  0.607  0.105  0.499-  24 1.43  20 1.44  32 1.44
  24  0.550  0.205  0.498-  23 1.43  25 1.45  26 1.45
  25  0.437  0.202  0.498-  51 1.36  21 1.44  24 1.45
  26  0.605  0.306  0.500-  52 1.33  36 1.45  24 1.45
  27  0.560  0.801  0.499-  54 1.36  30 1.43  29 1.47
  28  0.390  0.898  0.500-  19 1.43  29 1.44  22 1.44
  29  0.445  0.795  0.500-  53 1.38  28 1.44  27 1.47
  30  0.611  0.903  0.499-  20 1.42  27 1.43  47 1.43
  31  0.888  0.003  0.500-  34 1.42  49 1.43  33 1.43
  32  0.719  0.106  0.499-  33 1.43  23 1.44  37 1.44
  33  0.776  0.005  0.499-  47 1.43  32 1.43  31 1.43
  34  0.941  0.103  0.500-  31 1.42   2 1.43  35 1.43
  35  0.885  0.204  0.501-  38 1.43  34 1.43  37 1.43
  36  0.717  0.309  0.501-  37 1.44  26 1.45  40 1.46
  37  0.773  0.207  0.500-  35 1.43  36 1.44  32 1.44
  38  0.940  0.303  0.501-  35 1.43  39 1.43   6 1.43
  39  0.885  0.405  0.501-  38 1.43  41 1.44  40 1.44
  40  0.773  0.411  0.502-  55 1.40  39 1.44  36 1.46
  41  0.944  0.503  0.501-  42 1.42  10 1.42  39 1.44
  42  0.890  0.605  0.501-  44 1.42  41 1.42  45 1.43
  43  0.725  0.707  0.499-  54 1.38  48 1.42  44 1.43
  44  0.780  0.605  0.501-  55 1.39  42 1.42  43 1.43
  45  0.947  0.703  0.500-  46 1.42  42 1.43  13 1.43
  46  0.891  0.803  0.500-  45 1.42  49 1.42  48 1.43
  47  0.723  0.905  0.499-  48 1.42  33 1.43  30 1.43
  48  0.780  0.805  0.499-  43 1.42  47 1.42  46 1.43
  49  0.945  0.903  0.500-  46 1.42  31 1.43  17 1.43
  50  0.275  0.493  0.499-  12 1.38   9 1.39  56 1.91
  51  0.379  0.296  0.496-  25 1.36   8 1.37  56 1.96
  52  0.553  0.401  0.500-  26 1.33  56 1.82  57 1.89
  53  0.397  0.697  0.501-  29 1.38  15 1.40
  54  0.618  0.707  0.498-  27 1.36  43 1.38  57 2.07
  55  0.721  0.511  0.504-  44 1.39  40 1.40  57 2.15
  56  0.419  0.449  0.496-  52 1.82  50 1.91  51 1.96  57 2.26
  57  0.559  0.554  0.511-  52 1.89  54 2.07  55 2.15  56 2.26

  LATTYP: Found a triclinic cell.
 ALAT       =    12.8511910431
 B/A-ratio  =     0.9599485432
 C/A-ratio  =     1.5596170952
 COS(alpha) =     0.0001342966
 COS(beta)  =     0.0009520254
 COS(gamma) =     0.0209216895

  Lattice vectors:

 A1 = (  12.8504933877,   0.1337626907,   0.0062017955)
 A2 = (   0.1297084598,  12.3358001779,   0.0008877913)
 A3 = (   0.0093974936,   0.0011505710,  20.0429350090)

Analysis of symmetry for initial positions (statically):
 Subroutine PRICEL returns:
 Original cell was already a primitive cell.

 Routine SETGRP: Setting up the symmetry group for a
 triclinic supercell.

 Subroutine GETGRP returns: Found  1 space group operations
 (whereof  1 operations were pure point group operations)
 out of a pool of  2 trial point group operations.

The static configuration has the point symmetry C_1 .

Analysis of symmetry for dynamics (positions and initial velocities):
 Subroutine PRICEL returns:
 Original cell was already a primitive cell.

[...]

The dynamic configuration has the point symmetry C_1 .

Analysis of structural, dynamic, and magnetic symmetry:
 Subroutine PRICEL returns:
 Original cell was already a primitive cell.

 Routine SETGRP: Setting up the symmetry group for a
 triclinic supercell.

 Subroutine GETGRP returns: Found  1 space group operations
 (whereof  1 operations were pure point group operations)
 out of a pool of  2 trial point group operations.

The magnetic configuration has the point symmetry C_1 .

 Subroutine INISYM returns: Found  1 space group operations
 (whereof  1 operations are pure point group operations),
 and found     1 'primitive' translations

 KPOINTS: KPOINTS created by Atomic Simulation Env

Automatic generation of k-mesh.
Space group operators:
 irot       det(A)        alpha          n_x          n_y          n_z        tau_x        tau_y        tau_z
    1     1.000000     0.000000     1.000000     0.000000     0.000000     0.000000     0.000000     0.000000

 Subroutine IBZKPT returns following result:

 Found      2 irreducible k-points:

 Following reciprocal coordinates:
            Coordinates               Weight
  0.250000  0.250000 -0.000000      2.000000
 -0.250000  0.250000  0.000000      2.000000

 Following cartesian coordinates:
            Coordinates               Weight
  0.019246  0.020064 -0.000010      2.000000
 -0.019668  0.020473  0.000008      2.000000

 Subroutine IBZKPT_HF returns following result:

 Found      4 k-points in 1st BZ
 the following      4 k-points will be used (e.g. in the exchange kernel)
 Following reciprocal coordinates:   # in IRBZ
  0.250000  0.250000 -0.000000    0.25000000   1 t-inv F
 -0.250000  0.250000  0.000000    0.25000000   2 t-inv F
 -0.250000 -0.250000  0.000000    0.25000000   1 t-inv T
  0.250000 -0.250000 -0.000000    0.25000000   2 t-inv T

 SYSTEM =  unknown system
 POSCAR =   C  N Fe Ti

 Startparameter for this run:
   NWRITE =      2    write-flag & timer
   PREC   = accura    normal or accurate (medium, high low for compatibility)
   ISTART =      1    job   : 0-new  1-cont  2-samecut
   ICHARG =      0    charge: 1-file 2-atom 10-const
   ISPIN  =      2    spin polarized calculation?
   LNONCOLLINEAR =      F non collinear calculations
   LSORBIT =      F    spin-orbit coupling
   INIWAV =      1    electr: 0-lowe 1-rand  2-diag
   LASPH  =      T    aspherical Exc in radial PAW
   METAGGA=      F    non-selfconsistent MetaGGA calc.

 Electronic Relaxation 1
   ENCUT  =  500.0 eV  36.75 Ry    6.06 a.u.  23.43 22.49 36.54*2*pi/ulx,y,z
   ENINI  =  500.0     initial cutoff
   ENAUG  =  644.9 eV  augmentation charge cutoff
   NELM   =    250;   NELMIN=  2; NELMDL=  0     # of ELM steps
   EDIFF  = 0.1E-03   stopping-criterion for ELM
   LREAL  =      F    real-space projection
   NLSPLINE    = F    spline interpolate recip. space projectors
   LCOMPAT=      F    compatible to vasp.4.4
   GGA_COMPAT  = T    GGA compatible to vasp.4.4-vasp.4.6
   LMAXPAW     = -100 max onsite density
   LMAXMIX     =    2 max onsite mixed and CHGCAR
   VOSKOWN=      0    Vosko Wilk Nusair interpolation
   ROPT   =    0.00000   0.00000   0.00000   0.00000
 Ionic relaxation
   EDIFFG = -.3E-01   stopping-criterion for IOM
   NSW    =      0    number of steps for IOM
   NBLOCK =      1;   KBLOCK =      1    inner block; outer block
   IBRION =     -1    ionic relax: 0-MD 1-quasi-New 2-CG
   NFREE  =      1    steps in history (QN), initial steepest desc. (CG)
   ISIF   =      2    stress and relaxation
   IWAVPR =     10    prediction:  0-non 1-charg 2-wave 3-comb
   ISYM   =      3    0-nonsym 1-usesym 2-fastsym
   LCORR  =      T    Harris-Foulkes like correction to forces

   POTIM  = 0.5000    time-step for ionic-motion
   TEIN   =    0.0    initial temperature
   TEBEG  =    0.0;   TEEND  =   0.0 temperature during run
   SMASS  =  -3.00    Nose mass-parameter (am)
   estimated Nose-frequenzy (Omega)   =  0.10E-29 period in steps =****** mass=  -0.377E-26a.u.
   SCALEE = 1.0000    scale energy and forces
   NPACO  =    256;   APACO  = 16.0  distance and # of slots for P.C.
   PSTRESS=    0.0 pullay stress

  Mass of Ions in am
   POMASS =  12.01 14.00 55.85 47.88
  Ionic Valenz
   ZVAL   =   4.00  5.00  8.00  4.00
  Atomic Wigner-Seitz radii
  virtual crystal weights
   VCA    =   1.00  1.00  1.00  1.00
   NELECT =     238.0000    total number of electrons
   NUPDOWN=      -1.0000    fix difference up-down

 DOS related values:
   EMIN   =  10.00;   EMAX   =-10.00  energy-range for DOS
   EFERMI =   0.00
   ISMEAR =     0;   SIGMA  =   0.10  broadening in eV -4-tet -1-fermi 0-gaus

 Electronic relaxation 2 (details)
   IALGO  =     53    algorithm
   LDIAG  =      T    sub-space diagonalisation (order eigenvalues)
   LSUBROT=      F    optimize rotation matrix (better conditioning)
   TURBO    =      0    0=normal 1=particle mesh
   IRESTART =      0    0=no restart 2=restart with 2 vectors
   NREBOOT  =      0    no. of reboots
   NMIN     =      0    reboot dimension
   EREF     =   0.00    reference energy to select bands
   IMIX   =      4    mixing-type and parameters
     AMIX     =   0.40;   BMIX     =  1.00
     AMIX_MAG =   1.60;   BMIX_MAG =  1.00
     AMIN     =   0.10
     WC   =   100.;   INIMIX=   1;  MIXPRE=   1;  MAXMIX= -45

 Intra band minimization:
   WEIMIN = 0.0000     energy-eigenvalue tresh-hold
   EBREAK =  0.16E-06  absolut break condition
   DEPER  =   0.30     relativ break condition

   TIME   =   0.20     timestep for ELM

  volume/ion in A,a.u.               =      55.73       376.12
[...]
   27        0.859   1.722   0.000   2.581
   28        0.862   1.760   0.000   2.622
   29        0.853   1.705   0.000   2.557
   30        0.865   1.771   0.000   2.637
   31        0.865   1.772   0.000   2.636
   32        0.860   1.755   0.000   2.616
   33        0.864   1.766   0.000   2.629
   34        0.867   1.769   0.000   2.635
   35        0.864   1.764   0.000   2.629
   36        0.854   1.754   0.000   2.608
   37        0.862   1.746   0.000   2.608
   38        0.865   1.766   0.000   2.631
   39        0.862   1.756   0.000   2.618
   40        0.850   1.690   0.000   2.540
   41        0.866   1.769   0.000   2.636
   42        0.869   1.788   0.000   2.656
   43        0.864   1.755   0.000   2.620
   44        0.862   1.744   0.000   2.606
   45        0.864   1.771   0.000   2.636
   46        0.867   1.784   0.000   2.652
   47        0.868   1.764   0.000   2.632
   48        0.870   1.785   0.000   2.655
   49        0.866   1.769   0.000   2.634
   50        1.224   2.688   0.000   3.912
   51        1.240   2.687   0.000   3.927
   52        1.258   2.633   0.000   3.891
   53        1.231   2.586   0.000   3.817
   54        1.240   2.695   0.000   3.935
   55        1.232   2.635   0.000   3.867
   56        0.500   0.614   6.231   7.345
   57        0.485   0.691   2.628   3.803
tot         50.689 103.359   8.859 162.906

 magnetization (x)

[...]

  FORCE on cell =-STRESS in cart. coord.  units (eV):
  Direction    XX          YY          ZZ          XY          YZ          ZX
  Alpha Z    98.14712    98.14712    98.14712
  Ewald   45891.86482 45839.08871-53974.34137  -111.66759     3.84845    29.11103
  Hartree 45245.83217 45172.88806-44616.67487   -55.92134     4.54934    34.08176
  E(xc)    -693.12894  -693.39109  -705.55642    -1.00291    -0.16831    -0.16291
  Local  -93706.66013-93570.04752 95547.24487   154.70364    -8.66352   -64.53950
  n-local  -188.55626  -186.28285  -184.60871     1.90550    -0.17898    -0.04272
  augment    26.39748    27.14164    27.29122     1.98403     0.37297     0.44337
  Kinetic  3573.57816  3559.84072  4071.99107    13.89292     0.72125     1.81728
  Fock     -288.47447  -289.94082  -263.88518    -1.88735    -0.26457    -0.36230
  Total     -41.00006   -42.55604    -0.39226     2.00691     0.21663     0.34601
  in kB     -20.67732   -21.46204    -0.19783     1.01213     0.10925     0.17450

 VOLUME and BASIS-vectors are now :
  energy-cutoff  :      500.00
  volume of cell :     3176.88
      direct lattice vectors                 reciprocal lattice vectors
    12.850493388  0.133762691  0.006201795     0.077826559 -0.000818328 -0.000036443
     0.129708460 12.335800178  0.000887791    -0.000843907  0.081073741 -0.000004258
     0.009397494  0.001150571 20.042935009    -0.000024044 -0.000003338  0.049892904

  length of vectors
    12.851191043 12.336482120 20.042937245     0.077830870  0.081078133  0.049892910

 FORCES acting on ions:
    Electron-Ion                     Ewald-Force                    Non-Local-Force
   -.626E+00 0.940E+01 -.214E+01   0.236E+00 -.935E+01 0.214E+01   0.380E+00 -.402E-01 -.134E-01
   0.363E+01 0.524E+01 -.298E+01   -.370E+01 -.535E+01 0.299E+01   0.673E-01 0.102E+00 -.102E-01
   -.743E+00 0.195E+01 -.253E+01   0.590E+00 -.197E+01 0.252E+01   0.979E-01 -.137E-01 0.377E-02
   0.942E+00 0.117E+02 0.478E+00   -.106E+01 -.120E+02 -.521E+00   0.102E+00 0.273E+00 0.367E-01
   0.109E+02 0.114E+02 0.544E+00   -.113E+02 -.115E+02 -.526E+00   0.441E+00 0.754E-01 -.264E-01
   0.858E+01 -.164E+01 -.138E+01   -.883E+01 0.129E+01 0.135E+01   0.266E+00 0.320E+00 0.223E-01
   0.564E+01 0.327E+01 -.230E+01   -.604E+01 -.330E+01 0.231E+01   0.372E+00 0.385E-02 -.182E-01
   0.319E+02 0.351E+01 0.750E+01   -.351E+02 -.388E+01 -.743E+01   0.313E+01 0.289E+00 -.711E-01
   0.183E+02 0.951E+01 0.430E+01   -.202E+02 -.125E+02 -.427E+01   0.186E+01 0.286E+01 -.252E-01
   0.451E+01 -.110E+02 -.188E+01   -.472E+01 0.111E+02 0.186E+01   0.105E+00 -.199E+00 0.122E-01
   0.129E+02 0.211E+01 -.411E+00   -.134E+02 -.248E+01 0.430E+00   0.498E+00 0.332E+00 -.213E-01
   -.148E+02 -.435E+02 -.264E+01   0.132E+02 0.467E+02 0.269E+01   0.142E+01 -.312E+01 -.564E-01
   -.186E+01 -.498E+00 -.135E+01   0.184E+01 0.807E+00 0.136E+01   0.189E-01 -.219E+00 -.127E-01
   -.316E+01 -.739E+01 -.208E+01   0.316E+01 0.782E+01 0.207E+01   0.146E+00 -.341E+00 0.774E-02
   0.189E+00 0.202E+02 -.440E+01   -.294E+01 -.201E+02 0.437E+01   0.264E+01 -.314E-01 0.370E-01
   -.252E+01 0.101E+02 -.231E+01   0.215E+01 -.104E+02 0.230E+01   0.353E+00 0.298E+00 0.122E-01
   -.115E+01 0.688E+01 -.165E+01   0.121E+01 -.679E+01 0.165E+01   -.622E-01 -.241E-01 -.455E-02
   -.781E+01 -.260E+00 -.131E+01   0.752E+01 0.253E+00 0.129E+01   0.249E+00 -.287E-01 0.183E-01
   -.701E+00 0.651E+01 -.219E+01   0.470E+00 -.632E+01 0.221E+01   0.224E+00 -.158E+00 -.273E-01
   -.171E+01 0.171E+00 0.317E+01   0.172E+01 0.268E+00 -.318E+01   0.709E-01 -.411E+00 0.457E-02
   -.740E+01 0.105E+02 0.169E+01   0.764E+01 -.109E+02 -.165E+01   -.224E+00 0.158E+00 -.400E-01
   -.121E+01 0.120E+02 0.194E+01   0.159E+01 -.118E+02 -.195E+01   -.400E+00 -.110E+00 0.678E-02
   -.332E+01 0.139E+01 0.408E+01   0.321E+01 -.119E+01 -.407E+01   0.647E-01 -.228E+00 -.116E-01
   -.829E+01 -.167E+01 0.902E+01   0.863E+01 0.214E+01 -.913E+01   -.279E+00 -.464E+00 0.116E+00
   -.322E+02 0.295E+02 0.744E+01   0.344E+02 -.319E+02 -.736E+01   -.232E+01 0.269E+01 -.854E-01
   -.231E+02 0.201E+02 0.316E+01   0.243E+02 -.225E+02 -.316E+01   -.147E+01 0.259E+01 0.123E-01
   0.346E+02 0.169E+01 0.512E+01   -.363E+02 0.131E+01 -.518E+01   0.207E+01 -.318E+01 0.690E-01
   -.733E+01 0.552E+01 0.629E+00   0.752E+01 -.509E+01 -.651E+00   -.178E+00 -.442E+00 0.204E-01
   -.220E+02 0.101E+02 -.253E-01   0.225E+02 -.782E+01 -.106E+00   -.750E+00 -.242E+01 0.123E+00
   0.533E+01 0.343E+01 0.395E+01   -.552E+01 -.253E+01 -.394E+01   0.160E+00 -.799E+00 -.945E-02
   0.340E+01 0.159E+01 -.418E+00   -.335E+01 -.159E+01 0.424E+00   -.325E-01 -.719E-02 -.683E-02
   0.759E+00 -.368E+01 0.147E+01   -.714E+00 0.379E+01 -.147E+01   -.656E-02 -.164E+00 -.514E-02
   0.157E+01 -.304E+01 0.208E+01   -.137E+01 0.358E+01 -.207E+01   -.167E+00 -.454E+00 -.490E-02
   0.383E+01 -.180E+01 -.227E+01   -.393E+01 0.177E+01 0.226E+01   0.973E-01 0.299E-01 0.905E-03
   0.574E+01 0.254E+00 -.256E+01   -.588E+01 -.385E+00 0.256E+01   0.117E+00 0.964E-01 -.630E-02
   0.721E+00 -.101E+02 -.570E+01   -.117E+01 0.100E+02 0.580E+01   0.539E+00 0.178E-01 -.108E+00
   0.423E+01 -.249E+01 -.183E+01   -.443E+01 0.279E+01 0.181E+01   0.187E+00 -.250E+00 0.159E-01
   0.669E+01 -.772E+00 -.198E+01   -.680E+01 0.563E+00 0.197E+01   0.840E-01 0.243E+00 0.909E-02
   0.685E+01 0.166E+01 -.216E+01   -.680E+01 -.198E+01 0.212E+01   0.153E-01 0.243E+00 0.461E-01
   0.101E+02 0.188E+02 -.696E+01   -.912E+01 -.218E+02 0.675E+01   -.108E+01 0.308E+01 0.220E+00
   0.144E+01 0.320E+01 -.341E+01   -.129E+01 -.335E+01 0.348E+01   -.572E-01 0.999E-01 -.678E-01
   -.779E+00 -.422E+01 -.458E+00   0.108E+01 0.457E+01 0.435E+00   -.399E+00 -.262E+00 0.320E-01
   -.665E+01 0.145E+02 0.590E+01   0.103E+02 -.144E+02 -.598E+01   -.378E+01 -.140E-01 0.102E+00
   0.918E+01 -.116E+02 -.306E+01   -.733E+01 0.134E+02 0.294E+01   -.176E+01 -.204E+01 0.122E+00
   -.366E+01 0.148E+01 0.933E+00   0.384E+01 -.125E+01 -.966E+00   -.183E+00 -.194E+00 0.363E-01
   0.873E+00 0.288E+00 0.109E+01   -.303E+00 -.237E+00 -.106E+01   -.526E+00 -.439E-01 -.303E-01
   0.353E+01 -.315E+01 0.506E+01   -.334E+01 0.359E+01 -.510E+01   -.185E+00 -.498E+00 0.496E-01
   -.241E+01 -.758E+00 0.419E+01   0.313E+01 0.112E+01 -.418E+01   -.678E+00 -.322E+00 -.543E-03
   -.177E+01 -.160E+01 -.276E+00   0.181E+01 0.176E+01 0.269E+00   -.452E-01 -.154E+00 0.640E-02
   -.525E+02 -.468E+02 0.563E+01   0.710E+02 0.463E+02 -.597E+01   -.178E+02 0.649E+00 0.362E+00
   -.382E+02 -.253E+02 0.260E+02   0.494E+02 0.445E+02 -.275E+02   -.105E+02 -.186E+02 0.134E+01
   -.294E+02 -.823E+02 -.406E+01   0.256E+02 0.968E+02 0.446E+01   0.397E+01 -.138E+02 -.285E+00
   -.714E+02 0.113E+03 -.120E+02   0.845E+02 -.135E+03 0.124E+02   -.123E+02 0.211E+02 -.429E+00
   0.709E+02 0.103E+03 0.186E+02   -.812E+02 -.122E+03 -.199E+02   0.972E+01 0.183E+02 0.124E+01
   0.108E+03 -.488E+01 -.269E+02   -.130E+03 0.523E+01 0.280E+02   0.215E+02 -.369E+00 -.106E+01
   -.428E+02 -.149E+03 0.494E+02   0.424E+02 0.145E+03 -.490E+02   -.133E+01 0.363E+01 -.729E+00
   0.216E+02 -.464E+02 -.705E+02   -.183E+02 0.463E+02 0.691E+02   -.213E+01 0.227E+01 0.186E+01
   0.792E+01 -.105E+02 -.291E+01   0.171E-12 -.213E-13 0.000E+00   -.759E+01 0.103E+02 0.278E+01

 POSITION                                       TOTAL-FORCE (eV/Angst)
      2.97953     12.34028     10.02511         0.009677      0.012080     -0.006939
      0.69338      1.24434     10.02987        -0.001834      0.002394     -0.006341
      1.54914     12.34753     10.02998        -0.051086     -0.040169     -0.005204
      3.54778      1.24431     10.00896        -0.010559      0.008413     -0.004202
      2.82042      2.47041     10.00558        -0.010732      0.051779     -0.011009
      0.69922      3.71616     10.02570         0.033090     -0.023287     -0.005639
      1.39592      2.47876     10.02348        -0.008329     -0.025305     -0.008580
      3.53976      3.68264      9.97788         0.123304     -0.064514     -0.000630
      2.85398      4.94056      9.99486         0.148702      0.037771      0.001690
      0.77618      6.19042     10.02996        -0.094865     -0.102021     -0.001516
      1.44220      4.93846     10.01834         0.009059     -0.014057     -0.003283
      3.00059      7.35774     10.02431        -0.097940     -0.147942     -0.008407
      0.84979      8.64644     10.02975         0.007645      0.079689      0.001051
      1.55825      7.40789     10.02939         0.154933      0.080706     -0.002276
      3.78951      8.61262     10.03949         0.039949      0.108293      0.004528
      3.02157      9.84705     10.03331         0.000611     -0.025762      0.001279
      0.85383     11.11119     10.02905        -0.004316      0.067768     -0.003254
      1.57867      9.86883     10.03029        -0.032461     -0.043257     -0.001969
      3.70669     11.10678     10.02822         0.008778      0.019683     -0.007500
      7.12676      0.11456     10.00119         0.084059     -0.000873     -0.003033
      4.97294      1.27939      9.99884         0.001895     -0.176916     -0.001499
      5.83166     12.39398     10.00595        -0.045041      0.084766     -0.000172
      7.81912      1.37300      9.99965        -0.041262     -0.038764     -0.000115
      7.09266      2.60502      9.98614         0.054959     -0.023803      0.012780
      5.64701      2.55459      9.97535        -0.272075      0.375868     -0.006861
      7.81462      3.86058     10.01691        -0.297913      0.396633      0.013245
      7.29904      9.95932     10.00563         0.472373     -0.363215      0.012011
      5.13633     11.13055     10.01849        -0.000907     -0.046390     -0.000163
      5.83195      9.87296     10.02600        -0.362440     -0.274524     -0.001138
      7.97393     11.22435     10.00334        -0.019455      0.063705      0.001530
     11.41251      0.15622     10.02674         0.010943      0.002268     -0.001729
      9.25608      1.40428     10.01541         0.038193     -0.060199      0.001530
      9.97903      0.16662     10.01439         0.021764      0.056736      0.002433
     12.11542      1.39305     10.03538         0.000924     -0.011524     -0.004985
     11.40109      2.63425     10.03887        -0.010063     -0.026518     -0.003124
      9.26187      3.90648     10.04823         0.111838     -0.071575     -0.019909
      9.96757      2.65577     10.03434        -0.000030      0.036477      0.000004
     12.11889      3.86806     10.04063        -0.019712      0.045647     -0.002943
     11.43006      5.12003     10.04925         0.076146     -0.062145      0.014241
      9.98613      5.16950     10.06861        -0.201955      0.268098      0.026647
     12.20303      6.33215     10.04674         0.085483     -0.040654     -0.002526
     11.51758      7.57741     10.04140        -0.123078      0.070923      0.010969
      9.40817      8.82288     10.01516        -0.364401      0.071245      0.022232
     10.10157      7.56909     10.05439        -0.016232     -0.339435      0.014297
     12.26550      8.79506     10.03114        -0.014506      0.025590      0.005765
     11.56293     10.02967     10.02455         0.018866      0.005760     -0.001107
      9.40792     11.26085     10.00519        -0.002007     -0.087520      0.008010
     10.13638     10.03850     10.01235         0.000188      0.024269      0.005209
     12.27134     11.26149     10.02907        -0.006151     -0.013142     -0.000162
      3.60361      6.11500      9.99510        -0.757662      0.204968      0.054350
      4.91348      3.70256      9.94413        -0.220624     -1.033817      0.028018
      7.16845      5.02666     10.03327         0.554697     -0.558462      0.079587
      5.19085      8.64579     10.05326        -0.184807      0.675810     -0.036020
      8.03306      8.80912      9.99542         0.315615      0.850761      0.029011
      9.33883      6.40497     10.10613         0.797777     -0.056876     -0.099684
      5.44091      5.59498      9.94474        -0.907806     -0.540425     -0.200151
      7.25690      6.90664     10.24481         0.998779      0.584991      0.111652
    total drift:                               -0.004810     -0.003955      0.003672

  FREE ENERGIE OF THE ION-ELECTRON SYSTEM (eV)
  free  energy   TOTEN  =      -599.58162277 eV

  energy  without entropy=     -599.58031434  energy(sigma->0) =     -599.58096856

 stress matrix after NEB project (eV)
    -41.00006      2.00738      0.34601
      2.00691    -42.55604      0.21925
      0.34360      0.21663     -0.39226
  FORCES: max atom, RMS     1.162859    0.386931
  FORCE total and by dimension    2.921263    1.033817
  Stress total and by dimension   59.165570   42.556035
 writing wavefunctions

 total charge

[...]

 magnetization (x)

# of ion       s       p       d       tot
    1       -0.000  -0.004   0.000  -0.004
    2       -0.000   0.000   0.000   0.000
    3        0.000  -0.000   0.000   0.000
    4        0.000   0.002   0.000   0.002
    5       -0.000  -0.001   0.000  -0.001
    6       -0.000  -0.004   0.000  -0.004
    7        0.000   0.003   0.000   0.003
    8        0.000   0.001   0.000   0.002
    9       -0.002  -0.005   0.000  -0.007
   10        0.000   0.006   0.000   0.006
   11        0.000   0.004   0.000   0.004
   12       -0.001  -0.007   0.000  -0.009
   13       -0.000  -0.004   0.000  -0.005
   14       -0.000   0.001   0.000   0.001
   15        0.000   0.004   0.000   0.004
   16       -0.000  -0.001   0.000  -0.002
   17       -0.000   0.000   0.000   0.000
   18        0.000   0.002   0.000   0.002
   19        0.000   0.001   0.000   0.001
   20       -0.000  -0.004   0.000  -0.004
   21       -0.001  -0.002   0.000  -0.003
   22       -0.000  -0.003   0.000  -0.003
   23        0.000   0.003   0.000   0.003
   24       -0.002  -0.009   0.000  -0.010
   25        0.001   0.012   0.000   0.012
   26        0.001   0.011   0.000   0.012
   27        0.000  -0.003   0.000  -0.002
   28       -0.000   0.002   0.000   0.001
   29       -0.001  -0.007   0.000  -0.007
   30        0.000   0.002   0.000   0.002
   31       -0.000  -0.002   0.000  -0.002
   32       -0.000  -0.006   0.000  -0.006
   33        0.000  -0.001   0.000  -0.001
   34        0.000   0.001   0.000   0.001
   35       -0.000   0.000   0.000   0.000
   36       -0.001  -0.009   0.000  -0.010
   37        0.000   0.005   0.000   0.005
   38       -0.000  -0.001   0.000  -0.001
   39       -0.000  -0.000   0.000  -0.000
   40        0.001   0.008   0.000   0.008
   41        0.000   0.007   0.000   0.007
   42       -0.000  -0.000   0.000  -0.000
   43        0.000   0.003   0.000   0.003
   44       -0.000  -0.002   0.000  -0.002
   45       -0.000  -0.005   0.000  -0.005
   46        0.000   0.001   0.000   0.001
   47       -0.000  -0.002   0.000  -0.002
   48       -0.000  -0.001   0.000  -0.001
   49        0.000   0.002   0.000   0.002
   50        0.006   0.044   0.000   0.050
   51       -0.010  -0.036   0.000  -0.046
   52       -0.005  -0.042   0.000  -0.046
   53       -0.006  -0.035   0.000  -0.041
   54       -0.003  -0.030   0.000  -0.032
   55       -0.002  -0.004   0.000  -0.006
   56       -0.057  -0.035  -2.936  -3.028
   57        0.069   0.029   1.071   1.170
tot         -0.011  -0.112  -1.865  -1.988