 vasp.5.4.4.18Apr17-6-g9f103f2a35 (build Feb 25 2019 10:51:38) complex

 executed on             LinuxIFC date 2021.06.15  13:37:56

 INCAR:
 POTCAR:    PAW_PBE C 08Apr2002
 POTCAR:    PAW_PBE N 08Apr2002
 POTCAR:    PAW_PBE Fe 06Sep2000
 POTCAR:    PAW_PBE Sc_sv 07Sep2000

 POTCAR:    PAW_PBE C 08Apr2002
   VRHFIN =C: s2p2

   TITEL  = PAW_PBE C 08Apr2002
   POMASS =   12.011; ZVAL   =    4.000    mass and valenz
   ENMAX  =  400.000; ENMIN  =  300.000 eV

 POTCAR:    PAW_PBE N 08Apr2002
   VRHFIN =N: s2p3

   TITEL  = PAW_PBE N 08Apr2002
   POMASS =   14.001; ZVAL   =    5.000    mass and valenz
   ENMAX  =  400.000; ENMIN  =  300.000 eV

 POTCAR:    PAW_PBE Fe 06Sep2000
   VRHFIN =Fe:  d7 s1

   TITEL  = PAW_PBE Fe 06Sep2000
   POMASS =   55.847; ZVAL   =    8.000    mass and valenz
   ENMAX  =  267.882; ENMIN  =  200.911 eV

 POTCAR:    PAW_PBE Sc_sv 07Sep2000
   VRHFIN =Sc: 3p4s3d

   TITEL  = PAW_PBE Sc_sv 07Sep2000
   POMASS =   44.956; ZVAL   =   11.000    mass and valenz
   ENMAX  =  222.660; ENMIN  =  166.995 eV

  PAW_PBE C 08Apr2002                   :
  PAW_PBE N 08Apr2002                   :
  PAW_PBE Fe 06Sep2000                  :
  PAW_PBE Sc_sv 07Sep2000               :

 POSCAR:  C  N Fe Sc
  positions in cartesian coordinates
 exchange correlation table for  LEXCH =        8
   RHO(1)=    0.500       N(1)  =     2000
   RHO(2)=  100.500       N(2)  =     4000

 VTST: version 3.2, (02/03/18)

 CHAIN: initializing optimizer

 OPT: Using VASP Conjugate-Gradient optimizer
 CHAIN: Read ICHAIN            0

 POSCAR:  C  N Fe Sc
  positions in cartesian coordinates

 ion  position               nearest neighbor table
   1  0.221  0.004  0.500-  19 1.43   4 1.43   3 1.43
   2  0.056  0.102  0.499-   3 1.42   7 1.44  38 1.44
   3  0.110  0.003  0.499-   2 1.42  17 1.43   1 1.43
   4  0.278  0.104  0.500-   1 1.43  21 1.43   5 1.44
   5  0.225  0.206  0.500-   4 1.44   7 1.44   8 1.46
   6  0.058  0.303  0.500-   7 1.43  11 1.43  42 1.44
   7  0.114  0.203  0.500-   6 1.43   2 1.44   5 1.44
   8  0.282  0.309  0.501-  25 1.44   5 1.46   9 1.46
   9  0.225  0.410  0.501-  55 1.39  11 1.44   8 1.46
  10  0.055  0.502  0.499-  14 1.42  46 1.42  11 1.43
  11  0.113  0.404  0.500-  10 1.43   6 1.43   9 1.44
  12  0.216  0.605  0.501-  55 1.38  14 1.41  15 1.43
  13  0.052  0.703  0.498-  18 1.42  50 1.42  14 1.42
  14  0.107  0.604  0.499-  12 1.41  10 1.42  13 1.42
  15  0.272  0.706  0.501-  58 1.38  16 1.41  12 1.43
  16  0.218  0.804  0.499-  15 1.41  19 1.42  18 1.43
  17  0.053  0.903  0.498-  18 1.42   3 1.43  54 1.43
  18  0.107  0.803  0.498-  17 1.42  13 1.42  16 1.43
  19  0.275  0.903  0.500-  16 1.42   1 1.43  32 1.44
  20  0.554  0.996  0.500-  22 1.43  23 1.43  34 1.44
  21  0.389  0.101  0.500-  26 1.43   4 1.43  22 1.45
  22  0.443  0.999  0.500-  32 1.43  20 1.43  21 1.45
  23  0.611  0.097  0.499-  24 1.43  20 1.43  36 1.44
  24  0.557  0.197  0.499-  27 1.42  23 1.43  26 1.44
  25  0.394  0.304  0.500-  56 1.41  26 1.44   8 1.44
  26  0.446  0.201  0.500-  21 1.43  25 1.44  24 1.44
  27  0.616  0.295  0.499-  40 1.42  24 1.42  28 1.42
  28  0.561  0.395  0.497-  56 1.40  27 1.42  29 1.43  60 2.44
  29  0.617  0.495  0.497-  57 1.41  44 1.42  28 1.43  60 2.43
  30  0.608  0.693  0.498-  57 1.40  48 1.44  31 1.45
  31  0.550  0.792  0.500-  30 1.45  34 1.46  33 1.46
  32  0.386  0.899  0.500-  22 1.43  19 1.44  33 1.45
  33  0.437  0.795  0.501-  58 1.39  32 1.45  31 1.46
  34  0.607  0.895  0.499-  20 1.44  52 1.44  31 1.46
  35  0.887  1.000  0.498-  54 1.42  38 1.44  37 1.44
  36  0.722  0.098  0.499-  37 1.42  41 1.43  23 1.44
  37  0.776  0.998  0.499-  36 1.42  52 1.44  35 1.44
  38  0.945  0.100  0.499-  39 1.42  35 1.44   2 1.44
  39  0.891  0.199  0.499-  38 1.42  42 1.43  41 1.43
  40  0.725  0.297  0.498-  27 1.42  41 1.42  45 1.43
  41  0.780  0.198  0.499-  40 1.42  36 1.43  39 1.43
  42  0.947  0.300  0.499-  43 1.43  39 1.43   6 1.44
  43  0.891  0.399  0.499-  46 1.42  45 1.42  42 1.43
  44  0.727  0.496  0.498-  45 1.42  49 1.42  29 1.42
  45  0.781  0.398  0.498-  44 1.42  43 1.42  40 1.43
  46  0.945  0.501  0.498-  43 1.42  10 1.42  47 1.43
  47  0.888  0.600  0.498-  49 1.42  50 1.42  46 1.43
  48  0.720  0.697  0.497-  53 1.43  49 1.44  30 1.44
  49  0.779  0.598  0.497-  44 1.42  47 1.42  48 1.44
  50  0.942  0.701  0.497-  13 1.42  47 1.42  51 1.43
  51  0.886  0.800  0.497-  50 1.43  54 1.43  53 1.44
  52  0.719  0.897  0.498-  53 1.43  37 1.44  34 1.44
  53  0.775  0.798  0.498-  52 1.43  48 1.43  51 1.44
  54  0.942  0.901  0.498-  35 1.42  51 1.43  17 1.43
  55  0.273  0.511  0.503-  12 1.38   9 1.39  59 1.90
  56  0.453  0.400  0.499-  28 1.40  25 1.41  59 1.93  60 2.28
  57  0.559  0.591  0.497-  30 1.40  29 1.41  59 1.91  60 2.28
  58  0.378  0.701  0.503-  15 1.38  33 1.39  59 1.92
  59  0.416  0.551  0.504-  55 1.90  57 1.91  58 1.92  56 1.93  60 2.07
  60  0.501  0.511  0.590-  59 2.07  57 2.28  56 2.28  29 2.43  28 2.44

  LATTYP: Found a triclinic cell.
 ALAT       =    12.3333000000
 B/A-ratio  =     1.4376366110
 C/A-ratio  =     2.1883074779
 COS(alpha) =     0.0136202658
 COS(beta)  =     0.5014727348
 COS(gamma) =     0.6840611343

  Lattice vectors:

 A1 = (  -0.1948422525,  12.3317608389,   0.0000000000)
 A2 = (  12.7400577475,  12.3317608389,   0.0000000000)
 A3 = ( -12.4009039624,  13.3400285603, -19.9165805325)

Analysis of symmetry for initial positions (statically):
 Subroutine PRICEL returns:
 Original cell was already a primitive cell.

 Routine SETGRP: Setting up the symmetry group for a
 triclinic supercell.

 Subroutine GETGRP returns: Found  1 space group operations
 (whereof  1 operations were pure point group operations)
 out of a pool of  2 trial point group operations.

The static configuration has the point symmetry C_1 .

Analysis of symmetry for dynamics (positions and initial velocities):
 Subroutine PRICEL returns:
 Original cell was already a primitive cell.

[...]

The dynamic configuration has the point symmetry C_1 .

Analysis of structural, dynamic, and magnetic symmetry:
 Subroutine PRICEL returns:
 Original cell was already a primitive cell.

 Routine SETGRP: Setting up the symmetry group for a
 triclinic supercell.

 Subroutine GETGRP returns: Found  1 space group operations
 (whereof  1 operations were pure point group operations)
 out of a pool of  2 trial point group operations.

The magnetic configuration has the point symmetry C_1 .

 Subroutine INISYM returns: Found  1 space group operations
 (whereof  1 operations are pure point group operations),
 and found     1 'primitive' translations

 KPOINTS: KPOINTS created by Atomic Simulation Env

Automatic generation of k-mesh.
Space group operators:
 irot       det(A)        alpha          n_x          n_y          n_z        tau_x        tau_y        tau_z
    1     1.000000     0.000000     1.000000     0.000000     0.000000     0.000000     0.000000     0.000000

 Subroutine IBZKPT returns following result:

 Found      2 irreducible k-points:

 Following reciprocal coordinates:
            Coordinates               Weight
  0.250000  0.250000 -0.000000      2.000000
 -0.250000  0.250000 -0.000000      2.000000

 Following cartesian coordinates:
            Coordinates               Weight
  0.019328  0.020578  0.001749      2.000000
 -0.019328  0.019967  0.000304      2.000000

 Subroutine IBZKPT_HF returns following result:

 Found      4 k-points in 1st BZ
 the following      4 k-points will be used (e.g. in the exchange kernel)
 Following reciprocal coordinates:   # in IRBZ
  0.250000  0.250000 -0.000000    0.25000000   1 t-inv F
 -0.250000  0.250000 -0.000000    0.25000000   2 t-inv F
 -0.250000 -0.250000  0.000000    0.25000000   1 t-inv T
  0.250000 -0.250000  0.000000    0.25000000   2 t-inv T

 SYSTEM =  unknown system
 POSCAR =   C  N Fe Sc

 Startparameter for this run:
   NWRITE =      2    write-flag & timer
   PREC   = accura    normal or accurate (medium, high low for compatibility)
   ISTART =      1    job   : 0-new  1-cont  2-samecut
   ICHARG =      0    charge: 1-file 2-atom 10-const
   ISPIN  =      2    spin polarized calculation?
   LNONCOLLINEAR =      F non collinear calculations
   LSORBIT =      F    spin-orbit coupling
   INIWAV =      1    electr: 0-lowe 1-rand  2-diag
   LASPH  =      T    aspherical Exc in radial PAW
   METAGGA=      F    non-selfconsistent MetaGGA calc.

 Electronic Relaxation 1
   ENCUT  =  500.0 eV  36.75 Ry    6.06 a.u.  23.58 22.49 36.38*2*pi/ulx,y,z
   ENINI  =  500.0     initial cutoff
   ENAUG  =  644.9 eV  augmentation charge cutoff
   NELM   =    250;   NELMIN=  2; NELMDL=  0     # of ELM steps
   EDIFF  = 0.1E-03   stopping-criterion for ELM
   LREAL  =      F    real-space projection
   NLSPLINE    = F    spline interpolate recip. space projectors
   LCOMPAT=      F    compatible to vasp.4.4
   GGA_COMPAT  = T    GGA compatible to vasp.4.4-vasp.4.6
   LMAXPAW     = -100 max onsite density
   LMAXMIX     =    2 max onsite mixed and CHGCAR
   VOSKOWN=      0    Vosko Wilk Nusair interpolation
   ROPT   =    0.00000   0.00000   0.00000   0.00000
 Ionic relaxation
   EDIFFG = -.3E-01   stopping-criterion for IOM
   NSW    =      0    number of steps for IOM
   NBLOCK =      1;   KBLOCK =      1    inner block; outer block
   IBRION =     -1    ionic relax: 0-MD 1-quasi-New 2-CG
   NFREE  =      1    steps in history (QN), initial steepest desc. (CG)
   ISIF   =      2    stress and relaxation
   IWAVPR =     10    prediction:  0-non 1-charg 2-wave 3-comb
   ISYM   =      3    0-nonsym 1-usesym 2-fastsym
   LCORR  =      T    Harris-Foulkes like correction to forces

   POTIM  = 0.5000    time-step for ionic-motion
   TEIN   =    0.0    initial temperature
   TEBEG  =    0.0;   TEEND  =   0.0 temperature during run
   SMASS  =  -3.00    Nose mass-parameter (am)
   estimated Nose-frequenzy (Omega)   =  0.10E-29 period in steps =****** mass=  -0.382E-26a.u.
   SCALEE = 1.0000    scale energy and forces
   NPACO  =    256;   APACO  = 16.0  distance and # of slots for P.C.
   PSTRESS=    0.0 pullay stress

  Mass of Ions in am
   POMASS =  12.01 14.00 55.85 44.96
  Ionic Valenz
   ZVAL   =   4.00  5.00  8.00 11.00
  Atomic Wigner-Seitz radii
  virtual crystal weights
   VCA    =   1.00  1.00  1.00  1.00
   NELECT =     255.0000    total number of electrons
   NUPDOWN=      -1.0000    fix difference up-down

 DOS related values:
   EMIN   =  10.00;   EMAX   =-10.00  energy-range for DOS
   EFERMI =   0.00
   ISMEAR =     0;   SIGMA  =   0.10  broadening in eV -4-tet -1-fermi 0-gaus

 Electronic relaxation 2 (details)
   IALGO  =     53    algorithm
   LDIAG  =      T    sub-space diagonalisation (order eigenvalues)
   LSUBROT=      F    optimize rotation matrix (better conditioning)
   TURBO    =      0    0=normal 1=particle mesh
   IRESTART =      0    0=no restart 2=restart with 2 vectors
   NREBOOT  =      0    no. of reboots
   NMIN     =      0    reboot dimension
   EREF     =   0.00    reference energy to select bands
   IMIX   =      4    mixing-type and parameters
     AMIX     =   0.40;   BMIX     =  1.00
     AMIX_MAG =   1.60;   BMIX_MAG =  1.00
     AMIN     =   0.10
[...]
   46        0.866   1.779   0.000   2.645
   47        0.866   1.776   0.000   2.643
   48        0.860   1.764   0.000   2.624
   49        0.866   1.777   0.000   2.643
   50        0.869   1.779   0.000   2.647
   51        0.864   1.763   0.000   2.627
   52        0.861   1.755   0.000   2.616
   53        0.864   1.763   0.000   2.626
   54        0.866   1.769   0.000   2.635
   55        1.230   2.660   0.000   3.890
   56        1.226   2.662   0.000   3.888
   57        1.225   2.661   0.000   3.887
   58        1.231   2.662   0.000   3.893
   59        0.503   0.662   6.676   7.841
   60        2.213   6.062   1.464   9.739
tot         54.196 112.482   8.140 174.818

 magnetization (x)

[...]

  FORCE on cell =-STRESS in cart. coord.  units (eV):
  Direction    XX          YY          ZZ          XY          YZ          ZX
  Alpha Z   113.71333   113.71333   113.71333
  Ewald   50176.33294 50160.70355-58619.74620   -18.21820   -43.86504    65.43516
  Hartree 49893.08505 49850.59353-48757.74158   -31.75634   -27.37246    34.41627
  E(xc)    -745.20100  -745.08809  -759.37191     0.04118    -0.00513     0.02108
  Local  ************************104168.27530    58.32606    71.39298  -100.26623
  n-local  -194.63558  -194.82225  -195.52105     0.42955    -0.05180     0.00093
  augment    39.76214    39.90037    43.56472    -0.02193     0.29999    -0.43018
  Kinetic  3803.89276  3791.72922  4327.73411    -7.64100    -0.44907     0.86826
  Fock     -349.95908  -349.77920  -323.09837     0.52414     0.31318    -0.65329
  Total     -45.45062   -45.64511    -2.19164     1.68346     0.26264    -0.60800
  in kB     -22.92173   -23.01982    -1.10529     0.84900     0.13246    -0.30663

 VOLUME and BASIS-vectors are now :
  energy-cutoff  :      500.00
  volume of cell :     3176.90
      direct lattice vectors                 reciprocal lattice vectors
    12.934900000  0.000000000  0.000000000     0.077310223  0.001221504  0.002890971
    -0.194842253 12.331760839  0.000000000     0.000000000  0.081091420  0.004105216
    -0.728838290 -1.008267721 19.916580533     0.000000000  0.000000000  0.050209422

  length of vectors
    12.934900000 12.333300000 19.955400000     0.077373899  0.081195266  0.050209422

 FORCES acting on ions:
    Electron-Ion                     Ewald-Force                    Non-Local-Force
   0.676E+01 -.639E+01 0.504E+01   -.697E+01 0.666E+01 -.511E+01   0.217E+00 -.273E+00 0.681E-01
   0.455E+01 -.117E+01 0.478E+01   -.447E+01 0.108E+01 -.484E+01   -.326E-01 0.267E-01 0.613E-01
   0.321E+01 -.259E+01 0.604E+01   -.322E+01 0.273E+01 -.608E+01   0.307E-02 -.448E-01 0.425E-01
   0.912E+01 0.428E+01 0.465E+01   -.929E+01 -.426E+01 -.472E+01   0.165E+00 -.136E-02 0.643E-01
   0.115E+02 0.106E+02 0.464E+01   -.115E+02 -.106E+02 -.473E+01   0.517E-01 -.149E-01 0.811E-01
   0.595E+01 0.101E+02 0.527E+01   -.594E+01 -.104E+02 -.536E+01   -.364E-01 0.291E+00 0.823E-01
   0.332E+01 0.104E+02 0.334E+01   -.335E+01 -.105E+02 -.338E+01   0.268E-01 0.111E+00 0.324E-01
   0.307E+02 0.289E+02 0.123E+02   -.309E+02 -.288E+02 -.125E+02   0.261E+00 -.396E-01 0.225E+00
   0.377E+02 0.551E+02 0.118E+02   -.392E+02 -.581E+02 -.121E+02   0.144E+01 0.322E+01 0.283E+00
   0.157E+02 0.882E+01 0.754E+01   -.159E+02 -.905E+01 -.758E+01   0.251E+00 0.176E+00 0.270E-01
   0.173E+02 0.184E+02 0.692E+01   -.175E+02 -.187E+02 -.701E+01   0.148E+00 0.346E+00 0.744E-01
   0.581E+02 -.307E+02 0.144E+02   -.600E+02 0.331E+02 -.145E+02   0.187E+01 -.277E+01 0.191E+00
   0.119E+02 -.829E+01 0.132E+02   -.121E+02 0.865E+01 -.133E+02   0.144E+00 -.342E+00 0.605E-01
   0.296E+02 -.847E+01 0.128E+02   -.302E+02 0.892E+01 -.129E+02   0.534E+00 -.330E+00 0.102E+00
   0.572E+02 -.372E+02 0.146E+02   -.603E+02 0.376E+02 -.148E+02   0.329E+01 -.189E+00 0.181E+00
   0.225E+02 -.258E+02 0.121E+02   -.230E+02 0.261E+02 -.122E+02   0.516E+00 -.360E+00 0.939E-01
   0.748E+01 -.105E+02 0.967E+01   -.750E+01 0.106E+02 -.973E+01   0.363E-01 -.118E+00 0.637E-01
   0.108E+02 -.134E+02 0.123E+02   -.113E+02 0.134E+02 -.123E+02   0.365E+00 -.354E-01 0.640E-01
   0.661E+01 -.226E+02 0.626E+01   -.674E+01 0.231E+02 -.630E+01   0.140E+00 -.467E+00 0.349E-01
   -.418E+01 0.723E+00 0.554E+01   0.426E+01 -.897E+00 -.559E+01   -.626E-01 0.111E+00 0.417E-01
   0.516E+01 0.159E+02 0.679E+01   -.545E+01 -.162E+02 -.686E+01   0.289E+00 0.282E+00 0.593E-01
   0.121E+01 -.643E+01 0.585E+01   -.898E+00 0.663E+01 -.595E+01   -.288E+00 -.126E+00 0.881E-01
   -.672E+01 0.155E+02 0.796E+01   0.685E+01 -.158E+02 -.807E+01   -.152E+00 0.436E+00 0.106E+00
   -.304E+01 0.377E+02 0.157E+02   0.311E+01 -.385E+02 -.158E+02   0.500E-02 0.732E+00 0.120E+00
   0.446E+02 0.692E+02 0.298E+02   -.472E+02 -.726E+02 -.301E+02   0.260E+01 0.334E+01 0.344E+00
   0.789E+01 0.360E+02 0.166E+02   -.812E+01 -.364E+02 -.168E+02   0.146E+00 0.538E+00 0.169E+00
   -.294E+02 0.452E+02 0.273E+02   0.304E+02 -.463E+02 -.275E+02   -.776E+00 0.107E+01 0.111E+00
   -.671E+02 0.756E+02 0.931E+02   0.705E+02 -.769E+02 -.956E+02   -.341E+01 0.128E+01 0.235E+01
   -.961E+02 0.211E+02 0.953E+02   0.990E+02 -.235E+02 -.976E+02   -.288E+01 0.237E+01 0.226E+01
   -.348E+02 -.751E+02 0.364E+02   0.365E+02 0.791E+02 -.367E+02   -.166E+01 -.397E+01 0.329E+00
   -.101E+02 -.395E+02 0.165E+02   0.998E+01 0.397E+02 -.168E+02   0.160E+00 -.251E+00 0.240E+00
   -.168E+01 -.220E+02 0.708E+01   0.181E+01 0.224E+02 -.715E+01   -.122E+00 -.313E+00 0.614E-01
   -.246E+02 -.625E+02 0.139E+02   0.264E+02 0.652E+02 -.142E+02   -.204E+01 -.283E+01 0.281E+00
   -.635E+01 -.112E+02 0.846E+01   0.633E+01 0.113E+02 -.855E+01   0.147E-01 -.305E-01 0.853E-01
   0.140E+00 -.391E+01 0.736E+01   -.127E+00 0.391E+01 -.742E+01   -.733E-03 -.457E-01 0.554E-01
   -.604E+01 0.847E+01 0.712E+01   0.614E+01 -.860E+01 -.719E+01   -.548E-01 0.125E+00 0.593E-01
   -.725E+01 0.290E+01 0.722E+01   0.732E+01 -.289E+01 -.727E+01   -.546E-01 0.532E-01 0.551E-01
   -.528E+01 0.616E+01 0.564E+01   0.531E+01 -.618E+01 -.568E+01   -.580E-01 0.110E+00 0.461E-01
   -.532E+01 0.580E+01 0.650E+01   0.551E+01 -.599E+01 -.656E+01   -.156E+00 0.100E+00 0.602E-01
   -.261E+02 0.218E+02 0.168E+02   0.266E+02 -.220E+02 -.169E+02   -.576E+00 0.206E+00 0.149E+00
   -.152E+02 0.158E+02 0.881E+01   0.154E+02 -.161E+02 -.889E+01   -.176E+00 0.265E+00 0.776E-01
   -.675E+01 0.105E+02 0.645E+01   0.693E+01 -.106E+02 -.651E+01   -.152E+00 0.126E+00 0.562E-01
   -.126E+02 0.964E+01 0.100E+02   0.129E+02 -.977E+01 -.101E+02   -.232E+00 0.103E+00 0.668E-01
   -.522E+02 0.443E+01 0.310E+02   0.536E+02 -.475E+01 -.311E+02   -.129E+01 0.139E+00 0.141E+00
   -.299E+02 0.152E+02 0.181E+02   0.303E+02 -.155E+02 -.182E+02   -.431E+00 0.410E+00 0.162E+00
   -.317E+01 -.609E+00 0.990E+01   0.301E+01 0.581E+00 -.998E+01   0.131E+00 0.238E-01 0.747E-01
   -.127E+02 -.343E+01 0.143E+02   0.130E+02 0.347E+01 -.144E+02   -.287E+00 -.659E-01 0.876E-01
   -.269E+02 -.274E+02 0.253E+02   0.273E+02 0.279E+02 -.255E+02   -.414E+00 -.413E+00 0.223E+00
   -.308E+02 -.180E+02 0.236E+02   0.314E+02 0.185E+02 -.238E+02   -.481E+00 -.436E+00 0.157E+00
   -.313E-01 -.949E+01 0.133E+02   0.113E+00 0.975E+01 -.133E+02   -.685E-01 -.148E+00 0.620E-01
   -.675E+00 -.107E+02 0.127E+02   0.726E+00 0.108E+02 -.127E+02   -.496E-02 -.120E+00 0.731E-01
   -.414E+01 -.121E+02 0.959E+01   0.411E+01 0.122E+02 -.967E+01   0.453E-01 -.130E+00 0.778E-01
   -.132E+02 -.159E+02 0.142E+02   0.132E+02 0.163E+02 -.143E+02   -.347E-01 -.330E+00 0.680E-01
   -.132E+01 -.478E+01 0.980E+01   0.127E+01 0.495E+01 -.984E+01   0.479E-01 -.102E+00 0.506E-01
   0.421E+02 0.336E+02 0.966E+01   -.225E+02 -.329E+02 -.865E+01   -.187E+02 -.622E+00 -.967E+00
   0.654E+02 0.883E+02 0.127E+03   -.762E+02 -.728E+02 -.131E+03   0.103E+02 -.145E+02 0.463E+01
   -.425E+02 -.974E+02 0.143E+03   0.239E+02 0.984E+02 -.148E+03   0.175E+02 -.106E+01 0.504E+01
   -.718E+01 -.509E+02 0.126E+02   0.169E+02 0.334E+02 -.117E+02   -.923E+01 0.167E+02 -.839E+00
   0.131E+03 -.718E+02 0.177E+03   -.137E+03 0.753E+02 -.181E+03   0.529E+01 -.296E+01 0.329E+01
   -.573E+02 0.262E+02 -.131E+04   0.569E+02 -.261E+02 0.130E+04   0.645E-01 0.978E-04 0.428E+01
   -.234E+01 0.187E+01 -.286E+02   -.639E-12 0.114E-12 0.227E-12   0.220E+01 -.782E+00 0.257E+02

 POSITION                                       TOTAL-FORCE (eV/Angst)
      2.49796     -0.45880      9.95210         0.005684     -0.029107      0.000677
      0.34665      0.75977      9.94358         0.040897     -0.081617      0.001404
      1.06359     -0.46849      9.93917        -0.018585      0.080008      0.004161
      3.21502      0.78310      9.96160        -0.002063      0.007904     -0.004497
      2.50757      2.03654      9.96773         0.006761     -0.041063     -0.009051
      0.32731      3.22667      9.95289        -0.037082     -0.065243     -0.002473
      1.06553      2.00534      9.95788        -0.023391      0.043155     -0.007163
      3.22658      3.30383      9.97618         0.064649     -0.049323     -0.000149
      2.46013      4.54785      9.98616         0.028212      0.371684     -0.016380
      0.24375      5.68816      9.94572         0.036619     -0.042813     -0.014736
      1.01765      4.48312      9.96173        -0.013096      0.045328     -0.009283
      2.31245      6.95073      9.97552         0.066888     -0.487904      0.059217
      0.17266      8.16689      9.91896         0.005534     -0.012046      0.005084
      0.90407      6.94450      9.94042         0.044572      0.084797      0.013296
      3.01233      8.19704      9.97410         0.413273      0.226770      0.058674
      2.29441      9.41318      9.94481         0.008353     -0.116825      0.018364
      0.14728     10.62723      9.92251         0.013717     -0.086965      0.008033
      0.86854      9.40472      9.92366        -0.057133      0.047195      0.009152
      3.02025     10.63669      9.95551         0.007890      0.029815     -0.009270
      6.60856     11.77863      9.95267         0.008426     -0.067679     -0.009580
      4.64922      0.74103      9.95944        -0.001113     -0.027645     -0.012938
      5.17476     11.81737      9.95891        -0.001951      0.041236     -0.009613
      7.52242      0.68870      9.94454        -0.036468      0.107733     -0.001974
      6.80707      1.92343      9.94297         0.075683     -0.093757     -0.000710
      4.66936      3.24160      9.95919         0.139848      0.054266      0.020169
      5.36535      1.97892      9.95165        -0.085552      0.065709      0.006068
      7.54145      3.13815      9.93191         0.085378      0.070371     -0.013011
      6.82110      4.36523      9.90577        -0.172910      0.061735      0.024525
      7.52098      5.60918      9.89457        -0.143498      0.092852      0.036114
      7.37239      8.04270      9.92367        -0.085937     -0.183090      0.031266
      6.59559      9.26195      9.95120         0.094074     -0.054958      0.012175
      4.45424     10.58060      9.96345        -0.012969      0.005044     -0.008544
      5.13729      9.30261      9.97487        -0.346376     -0.261226     -0.013212
      7.31555     10.52879      9.94482        -0.003969      0.086056     -0.001582
     10.92075     11.82756      9.92531         0.008321     -0.065049     -0.000099
      8.95830      0.69961      9.93663         0.042641     -0.019095     -0.002639
      9.48109     11.80218      9.92953         0.002736      0.061529      0.001724
     11.84047      0.73560      9.93489        -0.048323      0.083434     -0.001097
     11.11641      1.95661      9.93572         0.018424     -0.104764      0.002146
      8.95978      3.15539      9.92795        -0.048545     -0.075142      0.001410
      9.68226      1.93308      9.93326        -0.023556      0.020828      0.002764
     11.82641      3.20175      9.93962         0.010091      0.081975     -0.003135
     11.08383      4.41834      9.92943         0.064632     -0.031117      0.001605
      8.94068      5.61931      9.91205         0.027946     -0.175635     -0.002533
      9.66051      4.39974      9.92129        -0.045277      0.130376      0.004067
     11.75621      5.66949      9.92775        -0.025363     -0.021025     -0.005540
     11.01085      6.89560      9.91070        -0.072236     -0.038689      0.005115
      8.81260      8.08847      9.90486         0.027743      0.016994      0.020678
      9.59091      6.87805      9.90369         0.063027      0.044779      0.008773
     11.68593      8.14754      9.90843         0.000482      0.092174      0.006852
     10.94072      9.36281      9.90751         0.042415     -0.067358      0.011118
      8.75928     10.55885      9.92734         0.010843     -0.050420      0.001496
      9.50140      9.33925      9.91101        -0.032650      0.022184      0.006910
     11.64816     10.60625      9.91581        -0.010890      0.060174      0.009808
      3.06655      5.79660     10.02513        -0.666787      0.018936     -0.038334
      5.42230      4.42944      9.93869         0.410419     -0.283150      0.267074
      6.74991      6.78433      9.90264         0.445766     -0.138197      0.233024
      4.38801      8.13760     10.01591        -0.312615      0.611649     -0.042310
      4.90639      6.28863     10.04437         0.305802     -0.145662      0.374459
      5.94739      5.71301     11.74414        -0.299411      0.149874     -1.027551
    total drift:                                0.554135      0.750012      0.116769

  FREE ENERGIE OF THE ION-ELECTRON SYSTEM (eV)
  free  energy   TOTEN  =      -629.08066411 eV

  energy  without entropy=     -629.05999757  energy(sigma->0) =     -629.07033084

 stress matrix after NEB project (eV)
    -45.45062      1.68345     -0.60800
      1.68346    -45.64511      0.26266
     -0.60798      0.26264     -2.19164
  FORCES: max atom, RMS     1.080726    0.263315
  FORCE total and by dimension    2.039633    1.027551
  Stress total and by dimension   64.502588   45.645110
 writing wavefunctions

 total charge

[...]

 magnetization (x)

# of ion       s       p       d       tot
    1        0.000   0.000   0.000   0.000
    2        0.000   0.000   0.000   0.000
    3       -0.000   0.000   0.000   0.000
    4        0.000  -0.000   0.000  -0.000
    5        0.000  -0.000   0.000  -0.000
    6        0.000   0.000   0.000   0.000
    7       -0.000  -0.000   0.000  -0.000
    8       -0.000   0.000   0.000   0.000
    9        0.000   0.000   0.000   0.000
   10       -0.000   0.000   0.000   0.000
   11       -0.000  -0.000   0.000  -0.000
   12       -0.000  -0.000   0.000  -0.000
   13       -0.000   0.000   0.000   0.000
   14        0.000   0.000   0.000   0.000
   15       -0.000  -0.000   0.000  -0.000
   16        0.000   0.000   0.000   0.000
   17        0.000   0.000   0.000   0.000
   18       -0.000  -0.000   0.000  -0.000
   19        0.000   0.000   0.000   0.000
   20        0.000   0.000   0.000   0.000
   21       -0.000  -0.000   0.000  -0.000
   22        0.000   0.000   0.000   0.000
   23       -0.000  -0.000   0.000  -0.000
   24        0.000   0.000   0.000   0.000
   25        0.000   0.000   0.000   0.000
   26       -0.000   0.000   0.000   0.000
   27       -0.000  -0.000   0.000  -0.000
   28        0.000  -0.000   0.000   0.000
   29       -0.000  -0.000   0.000  -0.000
   30        0.000   0.000   0.000   0.000
   31       -0.000   0.000   0.000   0.000
   32       -0.000  -0.000   0.000  -0.000
   33        0.000   0.000   0.000   0.000
   34        0.000  -0.000   0.000  -0.000
   35       -0.000   0.000   0.000  -0.000
   36        0.000   0.000   0.000   0.000
   37        0.000   0.000   0.000   0.000
   38       -0.000  -0.000   0.000  -0.000
   39        0.000   0.000   0.000   0.000
   40        0.000   0.000   0.000   0.000
   41        0.000   0.000   0.000   0.000
   42       -0.000  -0.000   0.000  -0.000
   43        0.000   0.000   0.000   0.000
   44        0.000   0.000   0.000   0.000
   45       -0.000  -0.000   0.000  -0.000
   46       -0.000  -0.000   0.000  -0.000
   47       -0.000  -0.000   0.000  -0.000
   48       -0.000  -0.000   0.000  -0.000
   49        0.000   0.000   0.000   0.000
   50        0.000   0.000   0.000   0.000
   51       -0.000  -0.000   0.000  -0.000
   52       -0.000  -0.000   0.000  -0.000
   53        0.000   0.000   0.000   0.000
   54        0.000  -0.000   0.000  -0.000
   55        0.000   0.000   0.000   0.000
   56        0.000  -0.000   0.000  -0.000
   57        0.000   0.000   0.000   0.000
   58        0.000   0.000   0.000   0.000
   59       -0.000   0.000  -0.000  -0.000
   60        0.000  -0.000   0.000   0.000
tot          0.000   0.000  -0.000  -0.000