 vasp.5.4.4.18Apr17-6-g9f103f2a35 (build Feb 25 2019 10:51:38) complex

 executed on             LinuxIFC date 2021.08.09  11:57:31

 INCAR:
 POTCAR:    PAW_PBE C 08Apr2002
 POTCAR:    PAW_PBE N 08Apr2002
 POTCAR:    PAW_PBE Fe 06Sep2000
 POTCAR:    PAW_PBE Cr 06Sep2000

 POTCAR:    PAW_PBE C 08Apr2002
   VRHFIN =C: s2p2

   TITEL  = PAW_PBE C 08Apr2002
   POMASS =   12.011; ZVAL   =    4.000    mass and valenz
   ENMAX  =  400.000; ENMIN  =  300.000 eV

 POTCAR:    PAW_PBE N 08Apr2002
   VRHFIN =N: s2p3

   TITEL  = PAW_PBE N 08Apr2002
   POMASS =   14.001; ZVAL   =    5.000    mass and valenz
   ENMAX  =  400.000; ENMIN  =  300.000 eV

 POTCAR:    PAW_PBE Fe 06Sep2000
   VRHFIN =Fe:  d7 s1

   TITEL  = PAW_PBE Fe 06Sep2000
   POMASS =   55.847; ZVAL   =    8.000    mass and valenz
   ENMAX  =  267.882; ENMIN  =  200.911 eV

 POTCAR:    PAW_PBE Cr 06Sep2000
   VRHFIN =Cr : d5 s1

   TITEL  = PAW_PBE Cr 06Sep2000
   POMASS =   51.996; ZVAL   =    6.000    mass and valenz
   ENMAX  =  227.080; ENMIN  =  170.310 eV

  PAW_PBE C 08Apr2002                   :
  PAW_PBE N 08Apr2002                   :
  PAW_PBE Fe 06Sep2000                  :
  PAW_PBE Cr 06Sep2000                  :

 POSCAR:  C  N Fe Cr
  positions in cartesian coordinates
 exchange correlation table for  LEXCH =        8
   RHO(1)=    0.500       N(1)  =     2000
   RHO(2)=  100.500       N(2)  =     4000

 VTST: version 3.2, (02/03/18)

 CHAIN: initializing optimizer

 OPT: Using VASP Conjugate-Gradient optimizer
 CHAIN: Read ICHAIN            0

 POSCAR:  C  N Fe Cr
  positions in cartesian coordinates

 ion  position               nearest neighbor table
   1  0.222  0.997  0.500-   4 1.42   3 1.43  19 1.43
   2  0.052  0.100  0.500-   7 1.42  34 1.43   3 1.43
   3  0.110  0.999  0.500-  17 1.42   1 1.43   2 1.43
   4  0.275  0.098  0.500-   1 1.42   5 1.42  21 1.42
   5  0.217  0.197  0.500-   8 1.41   4 1.42   7 1.42
   6  0.051  0.301  0.500-   7 1.42  11 1.43  38 1.43
   7  0.106  0.200  0.500-   2 1.42   6 1.42   5 1.42
   8  0.271  0.295  0.499-  51 1.37   5 1.41   9 1.43
   9  0.217  0.398  0.499-  50 1.40  11 1.41   8 1.43
  10  0.055  0.501  0.500-  11 1.42  41 1.42  14 1.44
  11  0.108  0.399  0.500-   9 1.41  10 1.42   6 1.43
  12  0.227  0.593  0.500-  50 1.39  14 1.44  15 1.48
  13  0.059  0.700  0.500-  18 1.42  14 1.43  45 1.43
  14  0.115  0.599  0.500-  13 1.43  10 1.44  12 1.44
  15  0.288  0.694  0.500-  53 1.40  16 1.46  12 1.48
  16  0.227  0.795  0.500-  19 1.43  18 1.44  15 1.46
  17  0.057  0.900  0.500-   3 1.42  49 1.43  18 1.44
  18  0.115  0.798  0.500-  13 1.42  17 1.44  16 1.44
  19  0.279  0.897  0.500-  28 1.43   1 1.43  16 1.43
  20  0.554  0.003  0.500-  22 1.42  30 1.42  23 1.44
  21  0.385  0.100  0.500-   4 1.42  22 1.43  25 1.44
  22  0.443  0.999  0.500-  20 1.42  21 1.43  28 1.44
  23  0.607  0.105  0.500-  24 1.43  32 1.43  20 1.44
  24  0.549  0.206  0.499-  23 1.43  25 1.44  26 1.46
  25  0.437  0.203  0.499-  51 1.37  24 1.44  21 1.44
  26  0.604  0.309  0.500-  52 1.34  36 1.45  24 1.46
  27  0.559  0.800  0.500-  54 1.38  30 1.44  29 1.46
  28  0.391  0.897  0.500-  19 1.43  29 1.44  22 1.44
  29  0.446  0.794  0.500-  53 1.39  28 1.44  27 1.46
  30  0.611  0.902  0.500-  20 1.42  47 1.43  27 1.44
  31  0.887  0.003  0.500-  34 1.42  49 1.43  33 1.43
  32  0.718  0.106  0.500-  33 1.43  23 1.43  37 1.44
  33  0.776  0.005  0.500-  47 1.43  31 1.43  32 1.43
  34  0.941  0.103  0.500-  31 1.42   2 1.43  35 1.43
  35  0.884  0.204  0.500-  38 1.43  37 1.43  34 1.43
  36  0.717  0.310  0.500-  37 1.44  26 1.45  40 1.45
  37  0.773  0.207  0.500-  35 1.43  36 1.44  32 1.44
  38  0.939  0.304  0.500-  35 1.43  39 1.43   6 1.43
  39  0.884  0.406  0.500-  38 1.43  41 1.44  40 1.44
  40  0.772  0.411  0.501-  55 1.40  39 1.44  36 1.45
  41  0.944  0.503  0.500-  42 1.42  10 1.42  39 1.44
  42  0.890  0.605  0.500-  44 1.41  41 1.42  45 1.43
  43  0.725  0.707  0.500-  54 1.38  48 1.41  44 1.42
  44  0.780  0.606  0.501-  55 1.39  42 1.41  43 1.42
  45  0.947  0.703  0.500-  46 1.42  42 1.43  13 1.43
  46  0.891  0.803  0.500-  49 1.42  45 1.42  48 1.43
  47  0.722  0.905  0.500-  48 1.42  33 1.43  30 1.43
  48  0.780  0.805  0.500-  43 1.41  47 1.42  46 1.43
  49  0.945  0.903  0.500-  46 1.42  31 1.43  17 1.43
  50  0.276  0.492  0.499-  12 1.39   9 1.40  56 1.91
  51  0.378  0.297  0.499-  25 1.37   8 1.37  56 1.96
  52  0.552  0.404  0.499-  26 1.34  56 1.78  57 1.89
  53  0.397  0.695  0.500-  29 1.39  15 1.40
  54  0.618  0.705  0.501-  27 1.38  43 1.38  57 1.96
  55  0.721  0.512  0.501-  44 1.39  40 1.40  57 2.05
  56  0.419  0.449  0.498-  52 1.78  50 1.91  51 1.96  57 2.33
  57  0.566  0.556  0.501-  52 1.89  54 1.96  55 2.05  56 2.33

  LATTYP: Found a triclinic cell.
 ALAT       =    12.8463445293
 B/A-ratio  =     0.9584572867
 C/A-ratio  =     1.5638631316
 COS(alpha) =     0.0011060955
 COS(beta)  =     0.0014346378
 COS(gamma) =     0.0223701083

  Lattice vectors:

 A1 = (  12.8455459779,   0.1429337669,   0.0092861066)
 A2 = (   0.1384520250,  12.3118919921,   0.0071570119)
 A3 = (   0.0141849061,   0.0103848234,  20.0899168938)

Analysis of symmetry for initial positions (statically):
 Subroutine PRICEL returns:
 Original cell was already a primitive cell.

 Routine SETGRP: Setting up the symmetry group for a
 triclinic supercell.

 Subroutine GETGRP returns: Found  1 space group operations
 (whereof  1 operations were pure point group operations)
 out of a pool of  2 trial point group operations.

The static configuration has the point symmetry C_1 .

Analysis of symmetry for dynamics (positions and initial velocities):
 Subroutine PRICEL returns:
 Original cell was already a primitive cell.

[...]

The dynamic configuration has the point symmetry C_1 .

Analysis of structural, dynamic, and magnetic symmetry:
 Subroutine PRICEL returns:
 Original cell was already a primitive cell.

 Routine SETGRP: Setting up the symmetry group for a
 triclinic supercell.

 Subroutine GETGRP returns: Found  1 space group operations
 (whereof  1 operations were pure point group operations)
 out of a pool of  2 trial point group operations.

The magnetic configuration has the point symmetry C_1 .

 Subroutine INISYM returns: Found  1 space group operations
 (whereof  1 operations are pure point group operations),
 and found     1 'primitive' translations

 KPOINTS: KPOINTS created by Atomic Simulation Env

Automatic generation of k-mesh.
Space group operators:
 irot       det(A)        alpha          n_x          n_y          n_z        tau_x        tau_y        tau_z
    1     1.000000     0.000002     1.000000     0.000000     0.000000     0.000000     0.000000     0.000000

 Subroutine IBZKPT returns following result:

 Found      2 irreducible k-points:

 Following reciprocal coordinates:
            Coordinates               Weight
  0.250000  0.250000  0.000000      2.000000
 -0.250000  0.250000  0.000000      2.000000

 Following cartesian coordinates:
            Coordinates               Weight
  0.019238  0.020089 -0.000024      2.000000
 -0.019690  0.020527  0.000003      2.000000

 Subroutine IBZKPT_HF returns following result:

 Found      4 k-points in 1st BZ
 the following      4 k-points will be used (e.g. in the exchange kernel)
 Following reciprocal coordinates:   # in IRBZ
  0.250000  0.250000  0.000000    0.25000000   1 t-inv F
 -0.250000  0.250000  0.000000    0.25000000   2 t-inv F
 -0.250000 -0.250000 -0.000000    0.25000000   1 t-inv T
  0.250000 -0.250000 -0.000000    0.25000000   2 t-inv T

 SYSTEM =  unknown system
 POSCAR =   C  N Fe Cr

 Startparameter for this run:
   NWRITE =      2    write-flag & timer
   PREC   = accura    normal or accurate (medium, high low for compatibility)
   ISTART =      1    job   : 0-new  1-cont  2-samecut
   ICHARG =      0    charge: 1-file 2-atom 10-const
   ISPIN  =      2    spin polarized calculation?
   LNONCOLLINEAR =      F non collinear calculations
   LSORBIT =      F    spin-orbit coupling
   INIWAV =      1    electr: 0-lowe 1-rand  2-diag
   LASPH  =      T    aspherical Exc in radial PAW
   METAGGA=      F    non-selfconsistent MetaGGA calc.

 Electronic Relaxation 1
   ENCUT  =  500.0 eV  36.75 Ry    6.06 a.u.  23.42 22.45 36.63*2*pi/ulx,y,z
   ENINI  =  500.0     initial cutoff
   ENAUG  =  644.9 eV  augmentation charge cutoff
   NELM   =    250;   NELMIN=  2; NELMDL=  0     # of ELM steps
   EDIFF  = 0.1E-03   stopping-criterion for ELM
   LREAL  =      F    real-space projection
   NLSPLINE    = F    spline interpolate recip. space projectors
   LCOMPAT=      F    compatible to vasp.4.4
   GGA_COMPAT  = T    GGA compatible to vasp.4.4-vasp.4.6
   LMAXPAW     = -100 max onsite density
   LMAXMIX     =    2 max onsite mixed and CHGCAR
   VOSKOWN=      0    Vosko Wilk Nusair interpolation
   ROPT   =    0.00000   0.00000   0.00000   0.00000
 Ionic relaxation
   EDIFFG = -.3E-01   stopping-criterion for IOM
   NSW    =      0    number of steps for IOM
   NBLOCK =      1;   KBLOCK =      1    inner block; outer block
   IBRION =     -1    ionic relax: 0-MD 1-quasi-New 2-CG
   NFREE  =      1    steps in history (QN), initial steepest desc. (CG)
   ISIF   =      2    stress and relaxation
   IWAVPR =     10    prediction:  0-non 1-charg 2-wave 3-comb
   ISYM   =      3    0-nonsym 1-usesym 2-fastsym
   LCORR  =      T    Harris-Foulkes like correction to forces

   POTIM  = 0.5000    time-step for ionic-motion
   TEIN   =    0.0    initial temperature
   TEBEG  =    0.0;   TEEND  =   0.0 temperature during run
   SMASS  =  -3.00    Nose mass-parameter (am)
   estimated Nose-frequenzy (Omega)   =  0.10E-29 period in steps =****** mass=  -0.377E-26a.u.
   SCALEE = 1.0000    scale energy and forces
   NPACO  =    256;   APACO  = 16.0  distance and # of slots for P.C.
   PSTRESS=    0.0 pullay stress

  Mass of Ions in am
   POMASS =  12.01 14.00 55.85 52.00
  Ionic Valenz
   ZVAL   =   4.00  5.00  8.00  6.00
  Atomic Wigner-Seitz radii
  virtual crystal weights
   VCA    =   1.00  1.00  1.00  1.00
   NELECT =     240.0000    total number of electrons
   NUPDOWN=      -1.0000    fix difference up-down

 DOS related values:
   EMIN   =  10.00;   EMAX   =-10.00  energy-range for DOS
   EFERMI =   0.00
   ISMEAR =     0;   SIGMA  =   0.10  broadening in eV -4-tet -1-fermi 0-gaus

 Electronic relaxation 2 (details)
   IALGO  =     53    algorithm
   LDIAG  =      T    sub-space diagonalisation (order eigenvalues)
   LSUBROT=      F    optimize rotation matrix (better conditioning)
   TURBO    =      0    0=normal 1=particle mesh
   IRESTART =      0    0=no restart 2=restart with 2 vectors
   NREBOOT  =      0    no. of reboots
   NMIN     =      0    reboot dimension
   EREF     =   0.00    reference energy to select bands
   IMIX   =      4    mixing-type and parameters
     AMIX     =   0.40;   BMIX     =  1.00
     AMIX_MAG =   1.60;   BMIX_MAG =  1.00
     AMIN     =   0.10
     WC   =   100.;   INIMIX=   1;  MIXPRE=   1;  MAXMIX= -45

 Intra band minimization:
   WEIMIN = 0.0000     energy-eigenvalue tresh-hold
   EBREAK =  0.16E-06  absolut break condition
   DEPER  =   0.30     relativ break condition

[...]
   27        0.857   1.723   0.000   2.580
   28        0.862   1.758   0.000   2.619
   29        0.853   1.706   0.000   2.559
   30        0.864   1.766   0.000   2.630
   31        0.865   1.772   0.000   2.637
   32        0.861   1.758   0.000   2.619
   33        0.864   1.765   0.000   2.629
   34        0.867   1.770   0.000   2.636
   35        0.865   1.765   0.000   2.630
   36        0.854   1.759   0.000   2.613
   37        0.862   1.745   0.000   2.608
   38        0.866   1.767   0.000   2.633
   39        0.862   1.759   0.000   2.621
   40        0.851   1.694   0.000   2.545
   41        0.868   1.775   0.000   2.643
   42        0.870   1.794   0.000   2.664
   43        0.866   1.768   0.000   2.634
   44        0.864   1.755   0.000   2.620
   45        0.865   1.774   0.000   2.639
   46        0.868   1.786   0.000   2.654
   47        0.869   1.768   0.000   2.636
   48        0.870   1.788   0.000   2.659
   49        0.866   1.769   0.000   2.635
   50        1.225   2.690   0.000   3.915
   51        1.238   2.687   0.000   3.925
   52        1.249   2.647   0.000   3.896
   53        1.230   2.576   0.000   3.806
   54        1.238   2.686   0.000   3.923
   55        1.229   2.641   0.000   3.870
   56        0.481   0.635   6.202   7.318
   57        0.416   0.580   4.378   5.374
tot         50.591 103.344  10.580 164.515

 magnetization (x)

[...]

  FORCE on cell =-STRESS in cart. coord.  units (eV):
  Direction    XX          YY          ZZ          XY          YZ          ZX
  Alpha Z    97.51970    97.51970    97.51970
  Ewald   46882.89572 46847.96946-55171.71656   -62.75570    50.98769    67.77784
  Hartree 46247.93499 46204.35864-45680.32467   -23.57997    49.00317    63.09256
  E(xc)    -701.41304  -701.86304  -715.14278    -0.57271    -0.03950    -0.00814
  Local  -95718.06253-95639.45442 97772.46087    74.79799  -100.49876  -130.80833
  n-local  -173.94852  -170.39472  -169.04000     2.35207     0.16261     0.05954
  augment    44.25858    48.54493    52.82819     1.55042     0.20108    -0.06220
  Kinetic  3588.56923  3583.18437  4104.32430    12.86938     0.33457    -0.08459
  Fock     -307.69092  -311.51542  -291.31122    -1.82391    -0.11070     0.07944
  Total     -39.93679   -41.65049    -0.40219     2.83757     0.04015     0.04613
  in kB     -20.14109   -21.00535    -0.20283     1.43106     0.02025     0.02326

 VOLUME and BASIS-vectors are now :
  energy-cutoff  :      500.00
  volume of cell :     3176.88
      direct lattice vectors                 reciprocal lattice vectors
    12.845545978  0.142933767  0.009286107     0.077857776 -0.000875509 -0.000054521
     0.138452025 12.311891992  0.007157012    -0.000903853  0.081232473 -0.000041352
     0.014184906  0.010384823 20.089916894    -0.000035666 -0.000028534  0.049776254

  length of vectors
    12.846344529 12.312672521 20.089924586     0.077862718  0.081237512  0.049776275

 FORCES acting on ions:
    Electron-Ion                     Ewald-Force                    Non-Local-Force
   0.291E+00 0.879E+01 -.174E+01   -.644E+00 -.880E+01 0.174E+01   0.385E+00 0.220E-01 -.135E-01
   0.363E+01 0.627E+01 -.143E+01   -.366E+01 -.644E+01 0.143E+01   0.911E-01 0.118E+00 -.678E-02
   -.696E+00 0.113E+01 -.110E+01   0.520E+00 -.113E+01 0.109E+01   0.529E-01 0.168E-01 -.408E-03
   0.179E+01 0.129E+02 -.115E+01   -.195E+01 -.133E+02 0.114E+01   0.929E-01 0.333E+00 0.719E-02
   0.123E+02 0.134E+02 -.121E+01   -.128E+02 -.136E+02 0.122E+01   0.477E+00 0.158E+00 -.144E-01
   0.869E+01 0.742E-01 -.149E+01   -.892E+01 -.487E+00 0.148E+01   0.267E+00 0.319E+00 0.360E-02
   0.587E+01 0.449E+01 -.195E+01   -.632E+01 -.451E+01 0.196E+01   0.392E+00 0.337E-01 -.106E-01
   0.341E+02 0.807E+01 0.141E+01   -.373E+02 -.847E+01 -.137E+01   0.329E+01 0.312E+00 -.362E-01
   0.221E+02 0.957E+01 0.121E+01   -.239E+02 -.124E+02 -.119E+01   0.196E+01 0.279E+01 -.192E-01
   0.416E+01 -.104E+02 -.237E+00   -.431E+01 0.105E+02 0.228E+00   0.103E+00 -.237E+00 0.110E-01
   0.139E+02 0.355E+01 -.603E+00   -.145E+02 -.391E+01 0.613E+00   0.529E+00 0.329E+00 -.116E-01
   -.870E+01 -.427E+02 0.743E+00   0.720E+01 0.458E+02 -.715E+00   0.139E+01 -.318E+01 -.251E-01
   -.207E+01 -.207E+01 0.279E+00   0.209E+01 0.243E+01 -.277E+00   0.147E-01 -.225E+00 0.234E-02
   -.335E+01 -.793E+01 0.174E+00   0.339E+01 0.841E+01 -.174E+00   0.144E+00 -.343E+00 0.184E-04
   0.545E+01 0.150E+02 -.973E-01   -.815E+01 -.148E+02 0.100E+00   0.251E+01 -.238E-01 -.208E-02
   -.250E+00 0.779E+01 -.639E+00   -.222E-01 -.817E+01 0.645E+00   0.312E+00 0.307E+00 -.839E-02
   -.984E+00 0.596E+01 0.292E+00   0.108E+01 -.589E+01 -.287E+00   -.641E-01 -.680E-02 -.643E-03
   -.769E+01 -.231E+01 0.242E+00   0.740E+01 0.230E+01 -.247E+00   0.168E+00 -.957E-02 0.708E-02
   0.109E+01 0.425E+01 -.131E+01   -.135E+01 -.407E+01 0.130E+01   0.198E+00 -.136E+00 0.355E-02
   -.301E+01 -.238E+01 0.156E+00   0.310E+01 0.273E+01 -.168E+00   0.667E-01 -.396E+00 0.117E-01
   -.727E+01 0.113E+02 -.354E+00   0.749E+01 -.118E+02 0.359E+00   -.151E+00 0.239E+00 -.654E-02
   0.750E+00 0.101E+02 -.794E+00   -.370E+00 -.995E+01 0.799E+00   -.452E+00 -.373E-01 -.796E-02
   -.203E+01 0.286E+01 0.570E+00   0.185E+01 -.267E+01 -.564E+00   0.131E-02 -.163E+00 -.675E-02
   -.989E+01 0.291E+01 0.191E+01   0.104E+02 -.258E+01 -.192E+01   -.274E+00 -.456E+00 0.189E-01
   -.299E+02 0.339E+02 0.191E+01   0.321E+02 -.364E+02 -.188E+01   -.243E+01 0.286E+01 -.305E-01
   -.234E+02 0.338E+02 0.542E+00   0.248E+02 -.363E+02 -.508E+00   -.163E+01 0.278E+01 -.383E-01
   0.315E+02 -.121E+02 -.117E+01   -.332E+02 0.149E+02 0.116E+01   0.226E+01 -.318E+01 0.194E-01
   -.527E+01 0.168E+01 -.125E+01   0.545E+01 -.131E+01 0.125E+01   -.141E+00 -.381E+00 -.325E-02
   -.136E+02 0.522E-01 -.106E+01   0.139E+02 0.202E+01 0.106E+01   -.830E+00 -.236E+01 -.685E-02
   0.581E+01 -.192E+01 -.273E+00   -.604E+01 0.286E+01 0.277E+00   0.124E+00 -.715E+00 -.614E-02
   0.238E+01 0.120E+01 0.104E+01   -.234E+01 -.121E+01 -.103E+01   -.159E-01 -.267E-01 0.558E-02
   -.266E+00 -.234E+01 0.263E+00   0.369E+00 0.243E+01 -.263E+00   0.221E-01 -.128E+00 0.739E-04
   0.537E+00 -.432E+01 0.979E+00   -.347E+00 0.487E+01 -.977E+00   -.151E+00 -.424E+00 0.465E-02
   0.287E+01 -.169E+01 -.360E+00   -.301E+01 0.167E+01 0.358E+00   0.826E-01 0.506E-01 0.458E-02
   0.422E+01 0.279E+01 -.120E+01   -.432E+01 -.300E+01 0.121E+01   0.127E+00 0.921E-01 -.341E-02
   -.356E+01 0.297E-01 -.195E+01   0.310E+01 -.267E+00 0.197E+01   0.510E+00 0.125E+00 -.310E-01
   0.265E+01 0.611E+00 -.862E+00   -.287E+01 -.400E+00 0.855E+00   0.172E+00 -.189E+00 0.483E-02
   0.435E+01 0.129E+01 -.171E+01   -.446E+01 -.150E+01 0.171E+01   0.688E-01 0.279E+00 -.591E-03
   0.228E+01 0.493E+01 -.191E+01   -.204E+01 -.527E+01 0.191E+01   -.438E-01 0.225E+00 -.161E-02
   -.679E+00 0.265E+02 -.235E+01   0.162E+01 -.296E+02 0.233E+01   -.119E+01 0.332E+01 0.207E-01
   -.310E+01 0.515E+01 -.123E+01   0.324E+01 -.532E+01 0.123E+01   -.118E+00 0.104E+00 -.714E-02
   -.692E+01 -.563E+01 -.106E+01   0.735E+01 0.602E+01 0.105E+01   -.499E+00 -.253E+00 0.529E-02
   -.179E+02 -.184E+01 -.200E+01   0.214E+02 0.207E+01 0.199E+01   -.383E+01 -.201E+00 0.806E-03
   -.992E+01 -.139E+02 -.240E+01   0.118E+02 0.159E+02 0.240E+01   -.183E+01 -.233E+01 -.373E-02
   -.739E+01 -.957E+00 0.736E-01   0.758E+01 0.122E+01 -.703E-01   -.223E+00 -.238E+00 -.220E-02
   -.177E+01 -.276E+01 0.909E+00   0.233E+01 0.283E+01 -.910E+00   -.515E+00 -.684E-01 0.647E-02
   0.190E+01 -.816E+01 0.562E+00   -.170E+01 0.858E+01 -.562E+00   -.146E+00 -.559E+00 0.481E-02
   -.710E+01 -.707E+01 0.121E+00   0.781E+01 0.764E+01 -.124E+00   -.654E+00 -.401E+00 0.620E-02
   -.358E+01 -.380E+01 0.133E+01   0.361E+01 0.398E+01 -.133E+01   -.526E-01 -.162E+00 0.104E-01
   -.433E+02 -.447E+02 0.371E+01   0.615E+02 0.444E+02 -.384E+01   -.177E+02 0.669E+00 0.151E+00
   -.337E+02 -.177E+02 0.734E+01   0.444E+02 0.360E+02 -.776E+01   -.101E+02 -.182E+02 0.425E+00
   -.289E+02 -.396E+02 0.348E+01   0.252E+02 0.520E+02 -.356E+01   0.378E+01 -.124E+02 0.103E+00
   -.550E+02 0.999E+02 -.485E+00   0.682E+02 -.122E+03 0.418E+00   -.123E+02 0.210E+02 0.642E-01
   0.593E+02 0.578E+02 -.400E+01   -.690E+02 -.750E+02 0.413E+01   0.923E+01 0.172E+02 -.129E+00
   0.701E+02 0.863E+01 -.465E+01   -.906E+02 -.839E+01 0.477E+01   0.199E+02 -.376E+00 -.117E+00
   -.300E+01 -.128E+03 0.212E+02   0.208E+01 0.123E+03 -.210E+02   -.490E+00 0.410E+01 -.302E+00
   0.536E+02 -.553E+02 -.659E+01   -.483E+02 0.538E+02 0.655E+01   -.426E+01 0.269E+01 0.721E-01
   0.119E+02 -.133E+02 -.144E+00   -.412E-12 -.171E-12 -.178E-14   -.114E+02 0.126E+02 0.121E+00

 POSITION                                       TOTAL-FORCE (eV/Angst)
      2.99051     12.31637     10.05904         0.053099      0.019342     -0.007616
      0.69176      1.24455     10.05121         0.065736     -0.040905     -0.004256
      1.56021     12.32464     10.05703        -0.122447      0.012397     -0.004714
      3.54918      1.24552     10.04935        -0.053693     -0.001032     -0.005387
      2.81903      2.46776     10.04789        -0.016202      0.037218     -0.008563
      0.69768      3.71401     10.05232         0.054577     -0.081136     -0.001860
      1.39470      2.47713     10.05242        -0.041917      0.007440     -0.006753
      3.53496      3.68002     10.03683         0.214578     -0.073016      0.001152
      2.85155      4.93260     10.03872         0.288783      0.053438     -0.003158
      0.78046      6.18363     10.04941        -0.039743     -0.151356      0.002173
      1.44402      4.93320     10.04784        -0.032720     -0.003923     -0.002865
      3.01073      7.34415     10.04321        -0.035066     -0.201180      0.000435
      0.85968      8.63077     10.04943         0.037182      0.124708      0.003998
      1.56712      7.39364     10.04746         0.192049      0.117991     -0.000141
      3.80299      8.58880     10.05042        -0.048926      0.190259      0.000620
      3.03500      9.82501     10.05397         0.059305     -0.056715     -0.002764
      0.86430     11.09006     10.05170         0.027024      0.076231      0.003664
      1.59233      9.84916     10.05103        -0.127064     -0.021389      0.002684
      3.71977     11.08439     10.05810        -0.051557      0.034282     -0.004786
      7.12460      0.12292     10.04886         0.155183     -0.072743      0.000543
      4.97260      1.28624     10.04614         0.056152     -0.238719     -0.001079
      5.84140     12.37428     10.05707        -0.089739      0.148459     -0.003548
      7.81535      1.38853     10.04689        -0.169568      0.025201     -0.001032
      7.08789      2.62477     10.04072         0.193105     -0.149385      0.005185
      5.64637      2.56389     10.03643        -0.440619      0.576184     -0.003279
      7.80871      3.89203     10.04552        -0.297255      0.487296     -0.006697
      7.30192      9.93507     10.06224         0.743497     -0.499925      0.002853
      5.14839     11.10760     10.05892         0.026114     -0.030926     -0.005539
      5.84706      9.84899     10.05866        -0.589318     -0.410031     -0.007131
      7.97941     11.20327     10.05895        -0.095028      0.190604     -0.001986
     11.40592      0.17027     10.05111         0.018684     -0.038832      0.009890
      9.24972      1.41879     10.05088         0.125165     -0.051859      0.000528
      9.97255      0.18066     10.04973         0.030877      0.097256      0.006350
     12.10938      1.40497     10.05700        -0.052752      0.025191      0.002578
     11.39322      2.64670     10.06001         0.034396     -0.107891     -0.001126
      9.25533      3.92271     10.05870         0.077777     -0.115366     -0.007397
      9.96042      2.67004     10.05682        -0.033057      0.011374     -0.001637
     12.11263      3.87730     10.06335        -0.038569      0.088199     -0.003213
     11.42394      5.12924     10.06521         0.204839     -0.108348     -0.005190
      9.98101      5.18002     10.06550        -0.307348      0.398781     -0.005205
     12.20405      6.33519     10.06348         0.017592     -0.060348      0.000593
     11.52242      7.57635     10.06410        -0.093586      0.121120     -0.000922
      9.41658      8.81718     10.06657        -0.540687      0.020052     -0.003909
     10.10768      7.57287     10.06812        -0.023007     -0.479423     -0.006000
     12.27114      8.79098     10.06007        -0.041555      0.013814      0.001047
     11.56672     10.02317     10.05799         0.019932      0.000239      0.006399
      9.41079     11.25100     10.05782         0.044859     -0.168112      0.004988
     10.13974     10.03127     10.06021         0.016222      0.146930      0.003104
     12.27598     11.25200     10.05735        -0.026431      0.009845      0.010638
      3.61790      6.09834     10.03318        -1.084260      0.347013      0.027559
      4.90747      3.71284     10.02488        -0.305298     -1.433343      0.037907
      7.15858      5.05943     10.03759         0.427083     -1.013037      0.023766
      5.20656      8.61623     10.05356        -0.172213      0.825669      0.002739
      8.04040      8.77442     10.06810         0.326991      1.459753     -0.008636
      9.33560      6.41699     10.06964         1.125513     -0.166800     -0.006316
      5.45604      5.59258     10.01186        -0.709247     -0.537935     -0.045385
      7.35471      6.93644     10.06451         1.042560      0.647389      0.016695
    total drift:                               -0.012011      0.000707      0.001153

  FREE ENERGIE OF THE ION-ELECTRON SYSTEM (eV)
  free  energy   TOTEN  =      -602.23945098 eV

  energy  without entropy=     -602.23685056  energy(sigma->0) =     -602.23815077

 stress matrix after NEB project (eV)
    -39.93679      2.83759      0.04613
      2.83757    -41.65049      0.04353
      0.04406      0.04015     -0.40219
  FORCES: max atom, RMS     1.495953    0.513013
  FORCE total and by dimension    3.873160    1.459753
  Stress total and by dimension   57.844480   41.650494
 writing wavefunctions

 total charge

[...]

 magnetization (x)

# of ion       s       p       d       tot
    1       -0.000  -0.001   0.000  -0.001
    2        0.000   0.001   0.000   0.002
    3        0.000   0.001   0.000   0.001
    4       -0.000  -0.001   0.000  -0.001
    5       -0.000  -0.001   0.000  -0.002
    6       -0.000  -0.003   0.000  -0.003
    7        0.000   0.004   0.000   0.004
    8        0.000   0.001   0.000   0.001
    9       -0.002  -0.003   0.000  -0.005
   10        0.000   0.007   0.000   0.007
   11        0.000   0.003   0.000   0.003
   12       -0.001  -0.002   0.000  -0.003
   13        0.000  -0.000   0.000  -0.000
   14       -0.001  -0.005   0.000  -0.005
   15        0.001   0.006   0.000   0.007
   16       -0.000   0.001   0.000   0.000
   17       -0.000   0.000   0.000   0.000
   18       -0.000   0.000   0.000   0.000
   19        0.000   0.002   0.000   0.002
   20        0.000   0.005   0.000   0.006
   21       -0.000   0.003   0.000   0.002
   22       -0.001  -0.009   0.000  -0.010
   23       -0.000  -0.001   0.000  -0.001
   24       -0.002  -0.009   0.000  -0.011
   25        0.000   0.004   0.000   0.004
   26       -0.000   0.005   0.000   0.005
   27        0.003   0.024   0.000   0.027
   28       -0.000   0.004   0.000   0.004
   29       -0.001  -0.014   0.000  -0.015
   30       -0.001  -0.006   0.000  -0.007
   31        0.000   0.001   0.000   0.001
   32        0.000   0.001   0.000   0.001
   33       -0.000  -0.006   0.000  -0.006
   34       -0.000  -0.000   0.000  -0.000
   35        0.000   0.002   0.000   0.002
   36       -0.000  -0.004   0.000  -0.005
   37        0.000   0.002   0.000   0.002
   38       -0.000  -0.002   0.000  -0.002
   39       -0.000   0.001   0.000   0.001
   40        0.001   0.007   0.000   0.008
   41        0.000   0.005   0.000   0.005
   42       -0.000  -0.001   0.000  -0.001
   43        0.002   0.018   0.000   0.020
   44        0.000  -0.002   0.000  -0.002
   45       -0.000  -0.006   0.000  -0.007
   46        0.000   0.002   0.000   0.003
   47        0.001   0.007   0.000   0.008
   48       -0.001  -0.005   0.000  -0.006
   49       -0.000  -0.000   0.000  -0.000
   50        0.006   0.050   0.000   0.056
   51       -0.013  -0.043   0.000  -0.056
   52       -0.007  -0.064   0.000  -0.071
   53       -0.010  -0.027   0.000  -0.037
   54       -0.008  -0.073   0.000  -0.081
   55       -0.008  -0.038   0.000  -0.046
   56       -0.092  -0.051  -3.035  -3.177
   57        0.064   0.025   3.228   3.318
tot         -0.071  -0.183   0.194  -0.060