 vasp.5.4.4.18Apr17-6-g9f103f2a35 (build Feb 25 2019 10:51:38) complex

 executed on             LinuxIFC date 2021.08.09  10:37:36

 INCAR:
 POTCAR:    PAW_PBE C 08Apr2002
 POTCAR:    PAW_PBE N 08Apr2002
 POTCAR:    PAW_PBE Fe 06Sep2000

 POTCAR:    PAW_PBE C 08Apr2002
   VRHFIN =C: s2p2

   TITEL  = PAW_PBE C 08Apr2002
   POMASS =   12.011; ZVAL   =    4.000    mass and valenz
   ENMAX  =  400.000; ENMIN  =  300.000 eV

 POTCAR:    PAW_PBE N 08Apr2002
   VRHFIN =N: s2p3

   TITEL  = PAW_PBE N 08Apr2002
   POMASS =   14.001; ZVAL   =    5.000    mass and valenz
   ENMAX  =  400.000; ENMIN  =  300.000 eV

 POTCAR:    PAW_PBE Fe 06Sep2000
   VRHFIN =Fe:  d7 s1

   TITEL  = PAW_PBE Fe 06Sep2000
   POMASS =   55.847; ZVAL   =    8.000    mass and valenz
   ENMAX  =  267.882; ENMIN  =  200.911 eV

  PAW_PBE C 08Apr2002                   :
  PAW_PBE N 08Apr2002                   :
  PAW_PBE Fe 06Sep2000                  :

 POSCAR:  C  N Fe
  positions in cartesian coordinates
 exchange correlation table for  LEXCH =        8
   RHO(1)=    0.500       N(1)  =     2000
   RHO(2)=  100.500       N(2)  =     4000

 VTST: version 3.2, (02/03/18)

 CHAIN: initializing optimizer

 OPT: Using VASP Conjugate-Gradient optimizer
 CHAIN: Read ICHAIN            0

 POSCAR:  C  N Fe
  positions in cartesian coordinates

 ion  position               nearest neighbor table
   1  0.227  0.002  0.500-  18 1.44   4 1.46   3 1.47
   2  0.057  0.100  0.500-   7 1.42   3 1.43  33 1.45
   3  0.114  0.001  0.500-   2 1.43  16 1.43   1 1.47
   4  0.282  0.106  0.500-   5 1.46   1 1.46  20 1.47
   5  0.222  0.205  0.500-  53 1.37   7 1.45   4 1.46
   6  0.051  0.298  0.500-  10 1.41  37 1.43   7 1.43
   7  0.110  0.201  0.500-   2 1.42   6 1.43   5 1.45
   8  0.209  0.398  0.500-  53 1.37  10 1.40  11 1.42
   9  0.048  0.500  0.500-  41 1.41  14 1.42  10 1.42
  10  0.102  0.399  0.500-   8 1.40   6 1.41   9 1.42
  11  0.263  0.498  0.499-  55 1.34   8 1.42  12 1.43
  12  0.211  0.599  0.500-  14 1.41  50 1.42  11 1.43
  13  0.052  0.701  0.500-  14 1.41  45 1.43  17 1.44
  14  0.103  0.600  0.500-  12 1.41  13 1.41   9 1.42
  15  0.223  0.798  0.500-  50 1.43  17 1.45  18 1.46
  16  0.058  0.901  0.500-  17 1.43   3 1.43  49 1.45
  17  0.111  0.800  0.500-  16 1.43  13 1.44  15 1.45
  18  0.280  0.900  0.500-   1 1.44  15 1.46  28 1.46
  19  0.558  0.999  0.500-  22 1.43  29 1.43  21 1.44
  20  0.395  0.105  0.500-  54 1.40  21 1.45   4 1.47
  21  0.447  0.001  0.500-  19 1.44  28 1.45  20 1.45
  22  0.614  0.098  0.500-  23 1.41  19 1.43  31 1.44
  23  0.559  0.197  0.500-  54 1.38  22 1.41  24 1.45
  24  0.614  0.300  0.500-  35 1.43  51 1.43  23 1.45
  25  0.610  0.501  0.499-  56 1.40  51 1.45  39 1.45
  26  0.616  0.698  0.500-  56 1.37  43 1.42  27 1.46
  27  0.559  0.799  0.500-  29 1.42  52 1.43  26 1.46
  28  0.392  0.898  0.500-  52 1.44  21 1.45  18 1.46
  29  0.614  0.899  0.500-  27 1.42  19 1.43  47 1.44
  30  0.891  1.000  0.500-  33 1.42  49 1.42  32 1.44
  31  0.724  0.099  0.500-  36 1.42  32 1.42  22 1.44
  32  0.780  1.000  0.500-  47 1.42  31 1.42  30 1.44
  33  0.946  0.099  0.500-  30 1.42  34 1.43   2 1.45
  34  0.888  0.198  0.500-  37 1.41  36 1.43  33 1.43
  35  0.723  0.299  0.500-  40 1.42  24 1.43  36 1.43
  36  0.779  0.199  0.500-  31 1.42  35 1.43  34 1.43
  37  0.941  0.299  0.500-  34 1.41   6 1.43  38 1.43
  38  0.886  0.399  0.500-  41 1.42  40 1.43  37 1.43
  39  0.721  0.500  0.500-  44 1.43  40 1.43  25 1.45
  40  0.777  0.399  0.500-  35 1.42  38 1.43  39 1.43
  41  0.940  0.500  0.500-   9 1.41  42 1.42  38 1.42
  42  0.887  0.600  0.500-  41 1.42  44 1.43  45 1.43
  43  0.725  0.700  0.500-  44 1.42  26 1.42  48 1.43
  44  0.778  0.600  0.500-  43 1.42  42 1.43  39 1.43
  45  0.943  0.701  0.500-  46 1.42  13 1.43  42 1.43
  46  0.889  0.801  0.500-  45 1.42  49 1.43  48 1.43
  47  0.724  0.900  0.500-  48 1.42  32 1.42  29 1.44
  48  0.780  0.801  0.500-  47 1.42  43 1.43  46 1.43
  49  0.947  0.900  0.500-  30 1.42  46 1.43  16 1.45
  50  0.272  0.695  0.500-  12 1.42  15 1.43  58 1.93
  51  0.556  0.398  0.499-  24 1.43  25 1.45  57 1.94
  52  0.449  0.799  0.500-  27 1.43  28 1.44  58 1.93
  53  0.268  0.306  0.499-   8 1.37   5 1.37  57 1.99
  54  0.453  0.200  0.499-  23 1.38  20 1.40  57 1.97
  55  0.366  0.497  0.499-  11 1.34  57 1.86  58 1.94
  56  0.562  0.602  0.499-  26 1.37  25 1.40  58 2.03
  57  0.413  0.355  0.499-  55 1.86  51 1.94  54 1.97  53 1.99
  58  0.413  0.647  0.499-  50 1.93  52 1.93  55 1.94  56 2.03

  LATTYP: Found a triclinic cell.
 ALAT       =    13.0493146808
 B/A-ratio  =     1.8163203030
 C/A-ratio  =     0.9431381984
 COS(alpha) =     0.0011189691
 COS(beta)  =     0.0022093946
 COS(gamma) =     0.5508831979

  Lattice vectors:

 A1 = (  13.0493069287,  -0.0142206727,  -0.0003033797)
 A2 = (  13.0573430098,  -0.0112906360,  19.7807461258)
 A3 = (   0.0137796638, -12.3072994187,   0.0003804365)

Analysis of symmetry for initial positions (statically):
 Subroutine PRICEL returns:
 Original cell was already a primitive cell.

 Routine SETGRP: Setting up the symmetry group for a
 triclinic supercell.

 Subroutine GETGRP returns: Found  1 space group operations
 (whereof  1 operations were pure point group operations)
 out of a pool of  2 trial point group operations.

The static configuration has the point symmetry C_1 .

Analysis of symmetry for dynamics (positions and initial velocities):
 Subroutine PRICEL returns:
 Original cell was already a primitive cell.

[...]

The dynamic configuration has the point symmetry C_1 .

Analysis of structural, dynamic, and magnetic symmetry:
 Subroutine PRICEL returns:
 Original cell was already a primitive cell.

 Routine SETGRP: Setting up the symmetry group for a
 triclinic supercell.

 Subroutine GETGRP returns: Found  1 space group operations
 (whereof  1 operations were pure point group operations)
 out of a pool of  2 trial point group operations.

The magnetic configuration has the point symmetry C_1 .

 Subroutine INISYM returns: Found  1 space group operations
 (whereof  1 operations are pure point group operations),
 and found     1 'primitive' translations

 KPOINTS: KPOINTS created by Atomic Simulation Env

Automatic generation of k-mesh.
Space group operators:
 irot       det(A)        alpha          n_x          n_y          n_z        tau_x        tau_y        tau_z
    1     1.000000     0.000001     1.000000     0.000000     0.000000     0.000000     0.000000     0.000000

 Subroutine IBZKPT returns following result:

 Found      2 irreducible k-points:

 Following reciprocal coordinates:
            Coordinates               Weight
  0.250000  0.250000 -0.000000      2.000000
 -0.250000  0.250000  0.000000      2.000000

 Following cartesian coordinates:
            Coordinates               Weight
  0.019180  0.020335 -0.000011      2.000000
 -0.019136  0.020292  0.000005      2.000000

 Subroutine IBZKPT_HF returns following result:

 Found      4 k-points in 1st BZ
 the following      4 k-points will be used (e.g. in the exchange kernel)
 Following reciprocal coordinates:   # in IRBZ
  0.250000  0.250000 -0.000000    0.25000000   1 t-inv F
 -0.250000  0.250000  0.000000    0.25000000   2 t-inv F
 -0.250000 -0.250000  0.000000    0.25000000   1 t-inv T
  0.250000 -0.250000  0.000000    0.25000000   2 t-inv T

 SYSTEM =  unknown system
 POSCAR =   C  N Fe

 Startparameter for this run:
   NWRITE =      2    write-flag & timer
   PREC   = accura    normal or accurate (medium, high low for compatibility)
   ISTART =      1    job   : 0-new  1-cont  2-samecut
   ICHARG =      0    charge: 1-file 2-atom 10-const
   ISPIN  =      2    spin polarized calculation?
   LNONCOLLINEAR =      F non collinear calculations
   LSORBIT =      F    spin-orbit coupling
   INIWAV =      1    electr: 0-lowe 1-rand  2-diag
   LASPH  =      T    aspherical Exc in radial PAW
   METAGGA=      F    non-selfconsistent MetaGGA calc.

 Electronic Relaxation 1
   ENCUT  =  500.0 eV  36.75 Ry    6.06 a.u.  23.79 22.44 36.07*2*pi/ulx,y,z
   ENINI  =  500.0     initial cutoff
   ENAUG  =  644.9 eV  augmentation charge cutoff
   NELM   =    250;   NELMIN=  2; NELMDL=  0     # of ELM steps
   EDIFF  = 0.1E-03   stopping-criterion for ELM
   LREAL  =      F    real-space projection
   NLSPLINE    = F    spline interpolate recip. space projectors
   LCOMPAT=      F    compatible to vasp.4.4
   GGA_COMPAT  = T    GGA compatible to vasp.4.4-vasp.4.6
   LMAXPAW     = -100 max onsite density
   LMAXMIX     =    2 max onsite mixed and CHGCAR
   VOSKOWN=      0    Vosko Wilk Nusair interpolation
   ROPT   =    0.00000   0.00000   0.00000
 Ionic relaxation
   EDIFFG = -.3E-01   stopping-criterion for IOM
   NSW    =      0    number of steps for IOM
   NBLOCK =      1;   KBLOCK =      1    inner block; outer block
   IBRION =     -1    ionic relax: 0-MD 1-quasi-New 2-CG
   NFREE  =      1    steps in history (QN), initial steepest desc. (CG)
   ISIF   =      2    stress and relaxation
   IWAVPR =     10    prediction:  0-non 1-charg 2-wave 3-comb
   ISYM   =      3    0-nonsym 1-usesym 2-fastsym
   LCORR  =      T    Harris-Foulkes like correction to forces

   POTIM  = 0.5000    time-step for ionic-motion
   TEIN   =    0.0    initial temperature
   TEBEG  =    0.0;   TEEND  =   0.0 temperature during run
   SMASS  =  -3.00    Nose mass-parameter (am)
   estimated Nose-frequenzy (Omega)   =  0.10E-29 period in steps =****** mass=  -0.389E-26a.u.
   SCALEE = 1.0000    scale energy and forces
   NPACO  =    256;   APACO  = 16.0  distance and # of slots for P.C.
   PSTRESS=    0.0 pullay stress

  Mass of Ions in am
   POMASS =  12.01 14.00 55.85
  Ionic Valenz
   ZVAL   =   4.00  5.00  8.00
  Atomic Wigner-Seitz radii
  virtual crystal weights
   VCA    =   1.00  1.00  1.00
   NELECT =     244.0000    total number of electrons
   NUPDOWN=      -1.0000    fix difference up-down

 DOS related values:
   EMIN   =  10.00;   EMAX   =-10.00  energy-range for DOS
   EFERMI =   0.00
   ISMEAR =     0;   SIGMA  =   0.10  broadening in eV -4-tet -1-fermi 0-gaus

 Electronic relaxation 2 (details)
   IALGO  =     53    algorithm
   LDIAG  =      T    sub-space diagonalisation (order eigenvalues)
   LSUBROT=      F    optimize rotation matrix (better conditioning)
   TURBO    =      0    0=normal 1=particle mesh
   IRESTART =      0    0=no restart 2=restart with 2 vectors
   NREBOOT  =      0    no. of reboots
   NMIN     =      0    reboot dimension
   EREF     =   0.00    reference energy to select bands
   IMIX   =      4    mixing-type and parameters
     AMIX     =   0.40;   BMIX     =  1.00
     AMIX_MAG =   1.60;   BMIX_MAG =  1.00
     AMIN     =   0.10
     WC   =   100.;   INIMIX=   1;  MIXPRE=   1;  MAXMIX= -45

 Intra band minimization:
   WEIMIN = 0.0000     energy-eigenvalue tresh-hold
   EBREAK =  0.16E-06  absolut break condition
   DEPER  =   0.30     relativ break condition

   TIME   =   0.20     timestep for ELM

  volume/ion in A,a.u.               =      54.77       369.63
  Fermi-wavevector in a.u.,A,eV,Ry     =   0.695887  1.315035  6.588731  0.484258
  Thomas-Fermi vector in A             =   1.778784

[...]
   33        0.863   1.760   0.000   2.623
   34        0.869   1.770   0.000   2.638
   35        0.869   1.768   0.000   2.637
   36        0.866   1.775   0.000   2.642
   37        0.868   1.780   0.000   2.648
   38        0.866   1.770   0.000   2.636
   39        0.863   1.757   0.000   2.621
   40        0.866   1.771   0.000   2.638
   41        0.872   1.785   0.000   2.657
   42        0.866   1.778   0.000   2.644
   43        0.869   1.788   0.000   2.657
   44        0.871   1.765   0.000   2.636
   45        0.868   1.767   0.000   2.635
   46        0.866   1.771   0.000   2.638
   47        0.867   1.769   0.000   2.636
   48        0.865   1.771   0.000   2.637
   49        0.863   1.757   0.000   2.620
   50        0.872   1.663   0.000   2.535
   51        0.869   1.652   0.000   2.521
   52        0.867   1.665   0.000   2.532
   53        1.238   2.664   0.000   3.902
   54        1.229   2.648   0.000   3.877
   55        1.256   2.586   0.000   3.842
   56        1.235   2.650   0.000   3.885
   57        0.477   0.613   6.229   7.319
   58        0.498   0.656   6.036   7.190
tot         50.928 102.882  12.265 166.074

 magnetization (x)

[...]

  FORCE on cell =-STRESS in cart. coord.  units (eV):
  Direction    XX          YY          ZZ          XY          YZ          ZX
  Alpha Z   101.91198   101.91198   101.91198
  Ewald   46717.03967 46847.15182-55287.57180    -0.38355    -3.53196    -5.09414
  Hartree 46173.49669 46202.84218-45660.39313    -3.01736    -2.94057    -3.40607
  E(xc)    -711.43467  -710.69472  -724.67877    -0.23032    -0.00686    -0.00578
  Local  -95514.59782-95651.28789 97881.35601     3.22876     6.36800     8.31021
  n-local  -152.05601  -149.75565  -139.51094     0.31748     0.02287    -0.00845
  augment    54.36290    50.78213    55.64718     2.63618     0.03499     0.01014
  Kinetic  3617.47349  3592.10687  4080.92915     0.08989     0.08688     0.18486
  Fock     -329.38482  -326.96959  -308.05189    -2.93533    -0.01884     0.03192
  Total     -43.18859   -43.91286    -0.36220    -0.29426     0.01450     0.02268
  in kB     -21.78114   -22.14641    -0.18267    -0.14840     0.00731     0.01144

 VOLUME and BASIS-vectors are now :
  energy-cutoff  :      500.00
  volume of cell :     3176.87
      direct lattice vectors                 reciprocal lattice vectors
    13.049306929 -0.014220673 -0.000303380     0.076632515  0.000085799 -0.000031145
    -0.013779664 12.307299419 -0.000380436     0.000088546  0.081252693 -0.000012071
     0.008036081  0.002930037 19.781049506     0.000001177  0.000001564  0.050553434

  length of vectors
    13.049314681 12.307307139 19.781051355     0.076632569  0.081252742  0.050553434

 FORCES acting on ions:
    Electron-Ion                     Ewald-Force                    Non-Local-Force
   -.202E+00 0.124E+01 0.119E-01   0.855E+00 -.172E+01 -.781E-02   -.468E+00 0.285E+00 -.447E-02
   0.175E+01 0.873E+01 -.475E+00   -.173E+01 -.917E+01 0.475E+00   -.371E-01 0.367E+00 -.587E-03
   -.124E+02 0.413E+01 -.123E+00   0.125E+02 -.433E+01 0.118E+00   -.274E+00 0.196E+00 0.519E-02
   -.682E+00 0.121E+02 0.731E+00   0.773E+00 -.123E+02 -.736E+00   -.857E-01 0.157E+00 0.508E-02
   0.776E+01 0.504E+02 0.599E+00   -.891E+01 -.537E+02 -.584E+00   0.114E+01 0.345E+01 -.129E-01
   0.112E+02 0.136E+02 -.127E+01   -.114E+02 -.138E+02 0.127E+01   0.329E+00 0.150E+00 -.193E-03
   0.289E+00 0.148E+02 -.475E+00   -.386E+00 -.151E+02 0.478E+00   0.104E+00 0.365E+00 -.431E-02
   0.278E+02 -.163E+02 -.102E+00   -.294E+02 0.192E+02 0.120E+00   0.153E+01 -.321E+01 -.177E-01
   0.427E+01 -.383E+01 -.218E+01   -.440E+01 0.424E+01 0.218E+01   0.279E-01 -.392E+00 -.442E-02
   0.190E+02 -.453E+01 -.178E+01   -.193E+02 0.493E+01 0.179E+01   0.476E+00 -.415E+00 -.117E-01
   0.420E+02 -.162E+02 0.953E+00   -.428E+02 0.170E+02 -.974E+00   0.168E+01 -.516E+00 0.806E-02
   0.866E+01 -.202E+02 -.784E+00   -.799E+01 0.214E+02 0.778E+00   -.632E+00 -.774E+00 0.199E-02
   0.118E+01 -.141E+02 -.137E+01   -.739E+00 0.143E+02 0.137E+01   -.295E+00 -.265E+00 -.164E-02
   0.714E+01 -.792E+01 -.188E+01   -.693E+01 0.812E+01 0.188E+01   -.257E+00 -.553E-01 -.376E-02
   -.107E+02 -.131E+02 -.426E+00   0.114E+02 0.125E+02 0.430E+00   -.666E+00 0.401E+00 -.701E-02
   -.128E+01 -.355E+01 -.443E+00   0.156E+01 0.342E+01 0.444E+00   -.266E+00 0.164E+00 0.570E-03
   -.847E+01 -.592E+01 -.727E+00   0.917E+01 0.591E+01 0.726E+00   -.680E+00 -.210E-01 0.854E-03
   -.423E+01 0.538E+01 -.173E+00   0.444E+01 -.593E+01 0.166E+00   -.298E+00 0.726E+00 0.492E-02
   0.596E+01 0.879E+01 -.871E+00   -.613E+01 -.913E+01 0.865E+00   0.139E+00 0.262E+00 0.199E-02
   0.295E+02 0.285E+02 0.635E+00   -.314E+02 -.312E+02 -.623E+00   0.203E+01 0.284E+01 -.112E-01
   0.112E+02 0.108E+02 -.368E+00   -.117E+02 -.116E+02 0.371E+00   0.539E+00 0.736E+00 -.452E-02
   -.110E+02 0.980E+01 -.937E+00   0.112E+02 -.982E+01 0.943E+00   -.226E+00 0.138E+00 -.952E-02
   -.329E+02 0.565E+00 0.341E+00   0.362E+02 -.740E-01 -.328E+00   -.366E+01 -.731E+00 -.135E-01
   -.881E+01 -.395E+01 0.734E+00   0.811E+01 0.629E+01 -.747E+00   0.761E+00 -.179E+01 0.138E-01
   0.547E+01 0.281E+02 0.939E+00   -.463E+01 -.332E+02 -.938E+00   -.630E+00 0.476E+01 0.212E-02
   -.126E+02 -.343E+02 -.283E+00   0.140E+02 0.373E+02 0.299E+00   -.155E+01 -.331E+01 -.182E-01
   0.241E+01 -.608E+01 -.701E+00   -.413E+01 0.682E+01 0.699E+00   0.135E+01 -.520E+00 0.707E-03
   0.116E+02 0.703E+01 -.420E+00   -.117E+02 -.811E+01 0.419E+00   0.138E+00 0.945E+00 -.237E-02
   -.107E+01 -.124E+01 -.109E+01   0.100E+01 0.980E+00 0.109E+01   0.661E-01 0.291E+00 -.474E-02
   0.209E+01 0.154E+01 -.801E+00   -.192E+01 -.159E+01 0.799E+00   -.789E-01 0.332E-01 0.176E-02
   0.141E+01 0.360E+01 -.113E+01   -.127E+01 -.350E+01 0.113E+01   -.139E+00 -.160E+00 -.718E-03
   -.661E+01 0.112E+01 -.117E+01   0.657E+01 -.108E+01 0.117E+01   -.131E-01 -.339E-01 -.460E-02
   -.677E+01 0.200E+01 -.822E+00   0.683E+01 -.207E+01 0.823E+00   -.493E-01 0.455E-01 -.146E-02
   0.188E+01 0.731E+01 -.104E+01   -.204E+01 -.739E+01 0.104E+01   0.153E+00 0.945E-01 0.100E-02
   -.128E+01 0.188E+01 -.422E+00   0.738E+00 -.199E+01 0.423E+00   0.614E+00 0.715E-01 -.978E-03
   -.301E+01 -.562E+00 -.963E+00   0.290E+01 0.757E+00 0.964E+00   0.162E+00 -.109E+00 -.153E-02
   0.321E+01 0.571E+00 -.138E+01   -.363E+01 -.528E+00 0.138E+01   0.330E+00 0.222E-02 -.176E-02
   0.342E+01 0.258E+01 -.139E+01   -.358E+01 -.268E+01 0.139E+01   0.175E+00 0.455E-02 -.145E-02
   0.879E+00 0.572E+01 -.184E+00   -.137E+01 -.616E+01 0.184E+00   0.433E+00 0.452E+00 -.997E-03
   0.143E+01 -.165E+01 -.624E+00   -.166E+01 0.138E+01 0.619E+00   0.179E+00 0.205E+00 0.380E-02
   0.754E+01 -.817E+00 -.174E+01   -.739E+01 0.785E+00 0.174E+01   -.572E-01 0.580E-01 -.195E-02
   0.722E+00 -.478E+01 -.122E+01   -.386E+00 0.483E+01 0.122E+01   -.244E+00 -.208E-02 -.183E-02
   -.673E+01 -.902E+01 -.420E+00   0.731E+01 0.934E+01 0.421E+00   -.465E+00 -.347E+00 0.126E-02
   -.451E+01 0.238E+01 -.535E+00   0.460E+01 -.266E+01 0.533E+00   -.160E+00 0.324E+00 0.200E-02
   -.110E+01 -.248E+01 -.107E+01   0.113E+01 0.255E+01 0.107E+01   -.155E+00 -.710E-01 0.715E-03
   -.304E+00 -.583E+01 -.688E+00   0.333E+00 0.594E+01 0.687E+00   -.503E-01 -.163E+00 0.231E-02
   0.394E+01 -.138E+01 -.102E+01   -.404E+01 0.147E+01 0.102E+01   0.105E+00 -.919E-01 0.711E-03
   -.312E+01 -.190E+01 -.756E+00   0.328E+01 0.229E+01 0.759E+00   -.141E+00 -.352E+00 -.303E-02
   -.866E+01 0.676E-01 -.590E+00   0.887E+01 0.131E-02 0.591E+00   -.212E+00 0.136E-01 0.462E-03
   -.290E+02 -.345E+02 0.550E+00   0.344E+02 0.346E+02 -.612E+00   -.604E+01 -.640E-01 0.625E-01
   0.191E+02 -.251E+02 0.210E+01   -.288E+02 0.245E+02 -.216E+01   0.978E+01 0.346E+00 0.711E-01
   0.340E+02 0.445E+01 -.687E+00   -.377E+02 -.952E+01 0.678E+00   0.398E+01 0.546E+01 0.578E-02
   -.390E+02 0.361E+02 0.289E+01   0.609E+02 -.346E+02 -.312E+01   -.207E+02 -.121E+01 0.222E+00
   0.337E+02 -.102E+02 0.231E+01   -.434E+02 0.282E+02 -.247E+01   0.939E+01 -.171E+02 0.155E+00
   -.874E+02 -.230E+02 0.824E+01   0.107E+03 0.235E+02 -.859E+01   -.196E+02 -.376E+00 0.345E+00
   0.481E+02 0.265E+02 0.128E+01   -.685E+02 -.278E+02 -.137E+01   0.194E+02 0.143E+01 0.906E-01
   -.404E+02 0.110E+02 0.781E+01   0.427E+02 -.839E+01 -.778E+01   -.278E+01 -.331E+01 -.304E-01
   -.132E+02 -.259E+02 0.452E+01   0.102E+02 0.268E+02 -.450E+01   0.345E+01 -.186E+01 -.241E-01
   0.320E+01 0.131E+02 -.881E+00   -.187E-12 -.448E-12 -.799E-14   -.252E+01 -.125E+02 0.803E+00

 POSITION                                       TOTAL-FORCE (eV/Angst)
      2.96102      0.02630      9.88604         0.164420     -0.186863     -0.000652
      0.74474      1.22741      9.89001        -0.015125     -0.060061     -0.000433
      1.49431      0.00996      9.88864        -0.137508      0.011769      0.000697
      3.68468      1.29825      9.88208        -0.006082     -0.000813      0.000904
      2.89236      2.52351      9.88166         0.061605      0.312922      0.000802
      0.66064      3.67403      9.89197         0.124074      0.000596     -0.002781
      1.43963      2.47089      9.88829         0.004582      0.093282     -0.001267
      2.72524      4.89579      9.88218        -0.015266     -0.560182     -0.000252
      0.62846      6.15532      9.89494        -0.108723     -0.002151     -0.004113
      1.32806      4.91485      9.89149         0.139846     -0.050380     -0.005234
      3.43390      6.12363      9.87669         1.072101      0.178286     -0.013440
      2.75055      7.37634      9.88572         0.016798      0.349169     -0.004523
      0.67693      8.63395      9.89330         0.128355     -0.108211     -0.001507
      1.34105      7.38558      9.89298        -0.050131      0.146989     -0.004458
      2.89714      9.82315      9.88724         0.005421     -0.123098     -0.003294
      0.74255     11.08780      9.89037         0.009628      0.045607      0.001432
      1.44682      9.84594      9.89058        -0.011565     -0.035006     -0.000768
      3.64592     11.07267      9.88630        -0.101466      0.222465     -0.001437
      7.26584     12.28528      9.88879        -0.026751     -0.061832     -0.003722
      5.15249      1.28559      9.88119         0.211604      0.252100      0.000581
      5.83690      0.00193      9.88620         0.068478     -0.037813     -0.001522
      8.01547      1.20063      9.88882         0.006426      0.134050     -0.004792
      7.30053      2.41681      9.88216        -0.508057     -0.281825     -0.001057
      8.00799      3.68520      9.88129         0.100965      0.472739      0.001319
      7.96244      6.16030      9.88025         0.185709     -0.080700      0.003461
      8.03147      8.57839      9.88580        -0.196128     -0.501174     -0.002797
      7.28111      9.83250      9.88778        -0.305911      0.198281     -0.001459
      5.10495     11.05121      9.88636         0.069430     -0.083355     -0.003183
      8.00192     11.06099      9.89050        -0.013992      0.047105     -0.002073
     11.61339     12.29291      9.89228         0.096074     -0.021969     -0.000320
      9.45398      1.20637      9.89189        -0.000284     -0.060467     -0.003513
     10.16912     12.29204      9.89280        -0.065007      0.008441     -0.002620
     12.34664      1.21219      9.89219        -0.006117     -0.023034     -0.000587
     11.59447      2.43036      9.89288        -0.002727      0.018560     -0.000898
      9.43600      3.66602      9.88796         0.105593     -0.032046     -0.000192
     10.16308      2.43355      9.89153         0.048791      0.076548     -0.001160
     12.28351      3.66606      9.89359        -0.070247      0.038192     -0.001603
     11.56061      4.90209      9.89362         0.026672     -0.089624     -0.001904
      9.41187      6.14330      9.88688        -0.037613      0.032583     -0.000483
     10.13268      4.90602      9.88969        -0.040561     -0.057294     -0.000767
     12.26787      6.13792      9.89494         0.087941      0.031086     -0.001805
     11.57259      7.37864      9.89340         0.078788      0.037200     -0.000507
      9.45169      8.60758      9.88910         0.083215     -0.056709      0.002106
     10.14660      7.36967      9.88989        -0.077303      0.064568      0.000073
     12.29606      8.61404      9.89329        -0.136509     -0.004602      0.000645
     11.59766      9.84967      9.89221        -0.019846     -0.062441      0.001388
      9.44229     11.06974      9.89206         0.023280      0.000842     -0.002305
     10.16499      9.84631      9.89153         0.002989      0.017007      0.000249
     12.34297     11.07057      9.89165        -0.021367      0.086768      0.001477
      3.54647      8.55273      9.88257        -0.932830     -0.035012      0.004258
      7.25237      4.89789      9.87513         0.551938     -0.238280      0.012884
      5.85397      9.82414      9.88594         0.488884      0.663774     -0.002701
      3.49375      3.75909      9.87550        -0.613590      0.184281      0.010276
      5.91637      2.45498      9.87656         0.520026     -0.533934      0.012051
      4.77101      6.11055      9.86216        -1.300391      0.105315      0.020809
      7.32740      7.40534      9.88005         0.697117      0.269325      0.002478
      5.39239      4.35908      9.86678        -0.353325     -0.374617      0.008492
      5.37796      7.95644      9.87428        -0.006329     -0.336357     -0.000250
    total drift:                                0.001570      0.006667     -0.001261

  FREE ENERGIE OF THE ION-ELECTRON SYSTEM (eV)
  free  energy   TOTEN  =      -609.18490793 eV

  energy  without entropy=     -609.16841803  energy(sigma->0) =     -609.17666298

 stress matrix after NEB project (eV)
    -43.18859     -0.29186      0.02268
     -0.29426    -43.91286      0.01427
      0.02250      0.01450     -0.36220
  FORCES: max atom, RMS     1.304814    0.390124
  FORCE total and by dimension    2.971097    1.300391
  Stress total and by dimension   61.594628   43.912864
 writing wavefunctions

 total charge

[...]

 magnetization (x)

# of ion       s       p       d       tot
    1        0.001   0.008   0.000   0.009
    2        0.001   0.018   0.000   0.019
    3       -0.001  -0.014   0.000  -0.015
    4        0.001   0.015   0.000   0.015
    5        0.001   0.010   0.000   0.010
    6        0.001   0.010   0.000   0.011
    7       -0.001  -0.012   0.000  -0.013
    8        0.002   0.032   0.000   0.034
    9        0.003   0.040   0.000   0.042
   10       -0.002  -0.015   0.000  -0.016
   11       -0.000  -0.006   0.000  -0.006
   12        0.003   0.034   0.000   0.037
   13        0.001   0.014   0.000   0.015
   14       -0.002  -0.016   0.000  -0.018
   15        0.002   0.021   0.000   0.022
   16        0.001   0.015   0.000   0.016
   17       -0.002  -0.013   0.000  -0.015
   18       -0.000  -0.005   0.000  -0.005
   19        0.001   0.014   0.000   0.015
   20        0.001   0.012   0.000   0.012
   21       -0.002  -0.015   0.000  -0.017
   22       -0.001  -0.008   0.000  -0.009
   23        0.001   0.023   0.000   0.024
   24       -0.001  -0.002   0.000  -0.002
   25       -0.000  -0.003   0.000  -0.003
   26       -0.001  -0.013   0.000  -0.013
   27        0.004   0.029   0.000   0.032
   28        0.001   0.019   0.000   0.021
   29       -0.001  -0.012   0.000  -0.014
   30        0.001   0.012   0.000   0.013
   31        0.002   0.023   0.000   0.024
   32       -0.001  -0.014   0.000  -0.015
   33       -0.001  -0.011   0.000  -0.012
   34        0.001   0.016   0.000   0.017
   35        0.000   0.009   0.000   0.009
   36       -0.001  -0.008   0.000  -0.009
   37       -0.001  -0.013   0.000  -0.014
   38        0.002   0.024   0.000   0.025
   39        0.001   0.018   0.000   0.019
   40       -0.001  -0.009   0.000  -0.010
   41       -0.002  -0.015   0.000  -0.017
   42        0.002   0.021   0.000   0.023
   43        0.001   0.016   0.000   0.018
   44       -0.001  -0.013   0.000  -0.014
   45       -0.001  -0.016   0.000  -0.017
   46        0.001   0.019   0.000   0.021
   47        0.002   0.022   0.000   0.024
   48       -0.001  -0.011   0.000  -0.012
   49       -0.001  -0.012   0.000  -0.013
   50       -0.019  -0.085   0.000  -0.104
   51       -0.009  -0.012   0.000  -0.021
   52       -0.016  -0.070   0.000  -0.087
   53       -0.002  -0.006   0.000  -0.008
   54       -0.003  -0.009   0.000  -0.013
   55       -0.004   0.049   0.000   0.046
   56        0.000   0.037   0.000   0.037
   57        0.041   0.021   2.164   2.226
   58        0.062   0.021   2.901   2.984
tot          0.059   0.183   5.065   5.306