 vasp.5.4.4.18Apr17-6-g9f103f2a35 (build Feb 25 2019 10:51:38) complex

 executed on             LinuxIFC date 2021.06.15  21:19:24

 INCAR:
 POTCAR:    PAW_PBE C 08Apr2002
 POTCAR:    PAW_PBE N 08Apr2002
 POTCAR:    PAW_PBE Fe 06Sep2000
 POTCAR:    PAW_PBE Ti 08Apr2002

 POTCAR:    PAW_PBE C 08Apr2002
   VRHFIN =C: s2p2

   TITEL  = PAW_PBE C 08Apr2002
   POMASS =   12.011; ZVAL   =    4.000    mass and valenz
   ENMAX  =  400.000; ENMIN  =  300.000 eV

 POTCAR:    PAW_PBE N 08Apr2002
   VRHFIN =N: s2p3

[...]

 POTCAR:    PAW_PBE Fe 06Sep2000
   VRHFIN =Fe:  d7 s1

   TITEL  = PAW_PBE Fe 06Sep2000
   POMASS =   55.847; ZVAL   =    8.000    mass and valenz
   ENMAX  =  267.882; ENMIN  =  200.911 eV

 POTCAR:    PAW_PBE Ti 08Apr2002
   VRHFIN =Ti: d3 s1

   TITEL  = PAW_PBE Ti 08Apr2002
   POMASS =   47.880; ZVAL   =    4.000    mass and valenz
   ENMAX  =  178.330; ENMIN  =  133.747 eV

  PAW_PBE C 08Apr2002                   :
  PAW_PBE N 08Apr2002                   :
  PAW_PBE Fe 06Sep2000                  :
  PAW_PBE Ti 08Apr2002                  :

 POSCAR:  C  N Fe Ti
  positions in cartesian coordinates
 exchange correlation table for  LEXCH =        8
   RHO(1)=    0.500       N(1)  =     2000
   RHO(2)=  100.500       N(2)  =     4000

 VTST: version 3.2, (02/03/18)

 CHAIN: initializing optimizer

 OPT: Using VASP Conjugate-Gradient optimizer
 CHAIN: Read ICHAIN            0

 POSCAR:  C  N Fe Ti
  positions in cartesian coordinates

 ion  position               nearest neighbor table
   1  0.221  0.004  0.500-  19 1.43   4 1.43   3 1.43
   2  0.056  0.102  0.499-   3 1.42   7 1.44  38 1.44
   3  0.110  0.003  0.499-   2 1.42  17 1.43   1 1.43
   4  0.278  0.104  0.500-   1 1.43  21 1.43   5 1.44
   5  0.225  0.206  0.500-   4 1.44   7 1.44   8 1.46
   6  0.058  0.302  0.500-   7 1.43  11 1.43  42 1.44
   7  0.114  0.203  0.500-   6 1.43   2 1.44   5 1.44
   8  0.282  0.309  0.501-  25 1.44   5 1.46   9 1.46
   9  0.225  0.410  0.501-  55 1.39  11 1.44   8 1.46
  10  0.055  0.502  0.499-  14 1.42  46 1.42  11 1.43
  11  0.113  0.404  0.500-   6 1.43  10 1.43   9 1.44
  12  0.216  0.605  0.501-  55 1.38  14 1.41  15 1.43
  13  0.052  0.703  0.498-  18 1.42  50 1.42  14 1.42
  14  0.107  0.604  0.499-  12 1.41  10 1.42  13 1.42
  15  0.272  0.706  0.501-  58 1.38  16 1.41  12 1.43
  16  0.218  0.804  0.499-  15 1.41  19 1.42  18 1.43
  17  0.053  0.903  0.498-  18 1.42   3 1.43  54 1.43
  18  0.107  0.803  0.498-  17 1.42  13 1.42  16 1.43
  19  0.275  0.903  0.500-  16 1.42   1 1.43  32 1.44
  20  0.554  0.996  0.500-  23 1.43  22 1.43  34 1.43
  21  0.389  0.101  0.500-  26 1.43   4 1.43  22 1.45
  22  0.443  0.999  0.500-  32 1.43  20 1.43  21 1.45
  23  0.611  0.097  0.499-  24 1.43  20 1.43  36 1.44
  24  0.557  0.197  0.500-  27 1.42  23 1.43  26 1.44
  25  0.394  0.303  0.500-  56 1.41  26 1.44   8 1.44
  26  0.446  0.201  0.500-  21 1.43  25 1.44  24 1.44
  27  0.616  0.295  0.499-  24 1.42  40 1.42  28 1.42
  28  0.561  0.395  0.498-  56 1.40  27 1.42  29 1.43  60 2.39
  29  0.617  0.495  0.497-  57 1.41  44 1.42  28 1.43  60 2.38
  30  0.609  0.694  0.499-  57 1.41  48 1.44  31 1.44
  31  0.550  0.792  0.500-  30 1.44  34 1.46  33 1.46
  32  0.386  0.899  0.500-  22 1.43  19 1.44  33 1.45
  33  0.438  0.795  0.501-  58 1.38  32 1.45  31 1.46
  34  0.607  0.895  0.499-  20 1.43  52 1.44  31 1.46
  35  0.888  1.000  0.498-  54 1.42  38 1.44  37 1.44
  36  0.722  0.098  0.499-  37 1.42  41 1.43  23 1.44
  37  0.776  0.998  0.498-  36 1.42  52 1.44  35 1.44
  38  0.945  0.100  0.499-  39 1.42  35 1.44   2 1.44
  39  0.891  0.199  0.499-  38 1.42  42 1.43  41 1.43
  40  0.725  0.297  0.499-  41 1.42  27 1.42  45 1.43
  41  0.780  0.198  0.499-  40 1.42  36 1.43  39 1.43
  42  0.947  0.300  0.499-  43 1.43  39 1.43   6 1.44
  43  0.891  0.399  0.499-  46 1.42  45 1.42  42 1.43
  44  0.727  0.496  0.498-  49 1.42  29 1.42  45 1.42
  45  0.781  0.397  0.498-  44 1.42  43 1.42  40 1.43
  46  0.945  0.501  0.499-  43 1.42  10 1.42  47 1.44
  47  0.888  0.600  0.498-  49 1.42  50 1.42  46 1.44
  48  0.720  0.697  0.498-  53 1.43  30 1.44  49 1.44
  49  0.779  0.598  0.498-  44 1.42  47 1.42  48 1.44
  50  0.942  0.701  0.498-  47 1.42  13 1.42  51 1.43
  51  0.886  0.800  0.497-  50 1.43  54 1.43  53 1.44
  52  0.719  0.897  0.498-  53 1.43  37 1.44  34 1.44
  53  0.775  0.798  0.498-  52 1.43  48 1.43  51 1.44
  54  0.942  0.901  0.498-  35 1.42  51 1.43  17 1.43
  55  0.273  0.511  0.504-  12 1.38   9 1.39  59 1.91
  56  0.453  0.399  0.500-  28 1.40  25 1.41  59 1.94  60 2.18
  57  0.559  0.591  0.498-  30 1.41  29 1.41  59 1.92  60 2.19
  58  0.378  0.701  0.503-  15 1.38  33 1.38  59 1.92
  59  0.416  0.551  0.504-  55 1.91  57 1.92  58 1.92  56 1.94  60 1.97
  60  0.497  0.512  0.584-  59 1.97  56 2.18  57 2.19  29 2.38  28 2.39

  LATTYP: Found a triclinic cell.
 ALAT       =    12.3365000000
 B/A-ratio  =     1.4377383492
 C/A-ratio  =     2.1843322463
 COS(alpha) =     0.0136789802
 COS(beta)  =     0.5004908227
 COS(gamma) =     0.6843897307

  Lattice vectors:

 A1 = (  -0.1885849109,  12.3350584912,   0.0000000000)
 A2 = (  12.7450150891,  12.3350584912,   0.0000000000)
 A3 = ( -12.3586024059,  13.2993648192, -19.9131475732)

Analysis of symmetry for initial positions (statically):
 Subroutine PRICEL returns:
 Original cell was already a primitive cell.

 Routine SETGRP: Setting up the symmetry group for a
 triclinic supercell.

 Subroutine GETGRP returns: Found  1 space group operations
 (whereof  1 operations were pure point group operations)
 out of a pool of  2 trial point group operations.

The static configuration has the point symmetry C_1 .

Analysis of symmetry for dynamics (positions and initial velocities):
 Subroutine PRICEL returns:
 Original cell was already a primitive cell.

[...]

The dynamic configuration has the point symmetry C_1 .

Analysis of structural, dynamic, and magnetic symmetry:
 Subroutine PRICEL returns:
 Original cell was already a primitive cell.

 Routine SETGRP: Setting up the symmetry group for a
 triclinic supercell.

 Subroutine GETGRP returns: Found  1 space group operations
 (whereof  1 operations were pure point group operations)
 out of a pool of  2 trial point group operations.

The magnetic configuration has the point symmetry C_1 .

 Subroutine INISYM returns: Found  1 space group operations
 (whereof  1 operations are pure point group operations),
 and found     1 'primitive' translations

 KPOINTS: KPOINTS created by Atomic Simulation Env

Automatic generation of k-mesh.
Space group operators:
 irot       det(A)        alpha          n_x          n_y          n_z        tau_x        tau_y        tau_z
    1     1.000000     0.000000     1.000000     0.000000     0.000000     0.000000     0.000000     0.000000

 Subroutine IBZKPT returns following result:

 Found      2 irreducible k-points:

 Following reciprocal coordinates:
            Coordinates               Weight
  0.250000  0.250000 -0.000000      2.000000
 -0.250000  0.250000 -0.000000      2.000000

 Following cartesian coordinates:
            Coordinates               Weight
  0.019329  0.020563  0.001737      2.000000
 -0.019329  0.019972  0.000226      2.000000

 Subroutine IBZKPT_HF returns following result:

 Found      4 k-points in 1st BZ
 the following      4 k-points will be used (e.g. in the exchange kernel)
 Following reciprocal coordinates:   # in IRBZ
  0.250000  0.250000 -0.000000    0.25000000   1 t-inv F
 -0.250000  0.250000 -0.000000    0.25000000   2 t-inv F
 -0.250000 -0.250000  0.000000    0.25000000   1 t-inv T
  0.250000 -0.250000  0.000000    0.25000000   2 t-inv T

 SYSTEM =  unknown system
 POSCAR =   C  N Fe Ti

 Startparameter for this run:
   NWRITE =      2    write-flag & timer
   PREC   = accura    normal or accurate (medium, high low for compatibility)
   ISTART =      1    job   : 0-new  1-cont  2-samecut
   ICHARG =      0    charge: 1-file 2-atom 10-const
   ISPIN  =      2    spin polarized calculation?
   LNONCOLLINEAR =      F non collinear calculations
   LSORBIT =      F    spin-orbit coupling
   INIWAV =      1    electr: 0-lowe 1-rand  2-diag
   LASPH  =      T    aspherical Exc in radial PAW
   METAGGA=      F    non-selfconsistent MetaGGA calc.

 Electronic Relaxation 1
   ENCUT  =  500.0 eV  36.75 Ry    6.06 a.u.  23.58 22.49 36.38*2*pi/ulx,y,z
   ENINI  =  500.0     initial cutoff
   ENAUG  =  644.9 eV  augmentation charge cutoff
   NELM   =    250;   NELMIN=  2; NELMDL=  0     # of ELM steps
   EDIFF  = 0.1E-03   stopping-criterion for ELM
   LREAL  =      F    real-space projection
   NLSPLINE    = F    spline interpolate recip. space projectors
   LCOMPAT=      F    compatible to vasp.4.4
   GGA_COMPAT  = T    GGA compatible to vasp.4.4-vasp.4.6
   LMAXPAW     = -100 max onsite density
   LMAXMIX     =    2 max onsite mixed and CHGCAR
   VOSKOWN=      0    Vosko Wilk Nusair interpolation
   ROPT   =    0.00000   0.00000   0.00000   0.00000
 Ionic relaxation
   EDIFFG = -.3E-01   stopping-criterion for IOM
   NSW    =      0    number of steps for IOM
   NBLOCK =      1;   KBLOCK =      1    inner block; outer block
   IBRION =     -1    ionic relax: 0-MD 1-quasi-New 2-CG
   NFREE  =      1    steps in history (QN), initial steepest desc. (CG)
   ISIF   =      2    stress and relaxation
   IWAVPR =     10    prediction:  0-non 1-charg 2-wave 3-comb
   ISYM   =      3    0-nonsym 1-usesym 2-fastsym
   LCORR  =      T    Harris-Foulkes like correction to forces

   POTIM  = 0.5000    time-step for ionic-motion
   TEIN   =    0.0    initial temperature
   TEBEG  =    0.0;   TEEND  =   0.0 temperature during run
   SMASS  =  -3.00    Nose mass-parameter (am)
   estimated Nose-frequenzy (Omega)   =  0.10E-29 period in steps =****** mass=  -0.382E-26a.u.
   SCALEE = 1.0000    scale energy and forces
   NPACO  =    256;   APACO  = 16.0  distance and # of slots for P.C.
   PSTRESS=    0.0 pullay stress

  Mass of Ions in am
   POMASS =  12.01 14.00 55.85 47.88
  Ionic Valenz
   ZVAL   =   4.00  5.00  8.00  4.00
  Atomic Wigner-Seitz radii
  virtual crystal weights
   VCA    =   1.00  1.00  1.00  1.00
   NELECT =     248.0000    total number of electrons
   NUPDOWN=      -1.0000    fix difference up-down

 DOS related values:
   EMIN   =  10.00;   EMAX   =-10.00  energy-range for DOS
   EFERMI =   0.00
   ISMEAR =     0;   SIGMA  =   0.10  broadening in eV -4-tet -1-fermi 0-gaus

 Electronic relaxation 2 (details)
   IALGO  =     53    algorithm
   LDIAG  =      T    sub-space diagonalisation (order eigenvalues)
   LSUBROT=      F    optimize rotation matrix (better conditioning)
   TURBO    =      0    0=normal 1=particle mesh
   IRESTART =      0    0=no restart 2=restart with 2 vectors
   NREBOOT  =      0    no. of reboots
   NMIN     =      0    reboot dimension
   EREF     =   0.00    reference energy to select bands
   IMIX   =      4    mixing-type and parameters
     AMIX     =   0.40;   BMIX     =  1.00
     AMIX_MAG =   1.60;   BMIX_MAG =  1.00
     AMIN     =   0.10
     WC   =   100.;   INIMIX=   1;  MIXPRE=   1;  MAXMIX= -45

 Intra band minimization:
   WEIMIN = 0.0000     energy-eigenvalue tresh-hold
[...]
   46        0.865   1.778   0.000   2.643
   47        0.866   1.776   0.000   2.642
   48        0.860   1.766   0.000   2.626
   49        0.867   1.775   0.000   2.641
   50        0.869   1.778   0.000   2.646
   51        0.864   1.764   0.000   2.628
   52        0.861   1.755   0.000   2.616
   53        0.864   1.764   0.000   2.627
   54        0.866   1.769   0.000   2.635
   55        1.228   2.667   0.000   3.894
   56        1.223   2.672   0.000   3.895
   57        1.223   2.669   0.000   3.893
   58        1.229   2.669   0.000   3.898
   59        0.500   0.655   6.609   7.764
   60        0.369   0.361   2.921   3.651
tot         52.341 106.805   9.530 168.677

 magnetization (x)

[...]

  FORCE on cell =-STRESS in cart. coord.  units (eV):
  Direction    XX          YY          ZZ          XY          YZ          ZX
  Alpha Z   106.92246   106.92246   106.92246
  Ewald   48574.30652 48598.07033-56983.31039    16.40695   -20.38309    25.62712
  Hartree 47915.08719 47905.95133-47364.91727    -3.46562    -7.34259     2.05916
  E(xc)    -717.14373  -716.64753  -732.26213     0.39545     0.28083    -0.56754
  Local  -99145.81019-99150.91489101194.41880    -6.15145    24.45398   -22.05077
  n-local  -192.50637  -191.94168  -191.30867     0.97336     1.13285    -1.96852
  augment    21.31064    21.41197    23.81399    -0.02399     0.94728    -1.54193
  Kinetic  3688.50297  3677.02691  4216.52075    -7.17719     0.97023    -1.49816
  Fock     -295.18342  -295.16802  -268.96693     0.32209    -0.40999     0.57186
  Total     -44.51392   -45.28912     0.91061     1.27960    -0.35049     0.63123
  in kB     -22.44946   -22.84041     0.45924     0.64533    -0.17676     0.31834

 VOLUME and BASIS-vectors are now :
  energy-cutoff  :      500.00
  volume of cell :     3176.88
      direct lattice vectors                 reciprocal lattice vectors
    12.933600000  0.000000000  0.000000000     0.077317993  0.001182078  0.003022051
    -0.188584911 12.335058491  0.000000000     0.000000000  0.081069741  0.003925852
    -0.763582505 -0.964306328 19.913147573     0.000000000  0.000000000  0.050218078

  length of vectors
    12.933600000 12.336500000 19.951100000     0.077386060  0.081164741  0.050218078

 FORCES acting on ions:
    Electron-Ion                     Ewald-Force                    Non-Local-Force
   0.338E+01 -.658E+01 0.136E+01   -.362E+01 0.680E+01 -.141E+01   0.235E+00 -.297E+00 0.356E-01
   0.297E+01 -.301E+01 0.248E+01   -.292E+01 0.290E+01 -.252E+01   -.140E-01 0.190E-01 0.364E-01
   0.800E+00 -.275E+01 0.373E+01   -.829E+00 0.290E+01 -.375E+01   0.202E-01 -.480E-01 0.229E-01
   0.476E+01 -.436E+00 -.353E+00   -.492E+01 0.482E+00 0.314E+00   0.165E+00 0.159E-01 0.280E-01
   0.442E+01 0.397E+01 -.499E+00   -.452E+01 -.405E+01 0.439E+00   0.101E+00 0.176E-01 0.512E-01
   0.307E+01 0.671E+01 0.135E+01   -.308E+01 -.711E+01 -.140E+01   -.480E-02 0.306E+00 0.473E-01
   -.339E+00 0.667E+01 -.139E+00   0.279E+00 -.672E+01 0.123E+00   0.504E-01 0.124E+00 0.677E-02
   0.166E+02 0.155E+02 0.168E+01   -.168E+02 -.156E+02 -.187E+01   0.294E+00 0.578E-01 0.178E+00
   0.196E+02 0.486E+02 0.118E+01   -.213E+02 -.518E+02 -.145E+01   0.156E+01 0.333E+01 0.268E+00
   0.114E+02 0.900E+01 0.249E+01   -.117E+02 -.927E+01 -.251E+01   0.297E+00 0.190E+00 0.613E-02
   0.102E+02 0.151E+02 0.137E+01   -.105E+02 -.154E+02 -.142E+01   0.259E+00 0.396E+00 0.409E-01
   0.419E+02 -.245E+02 0.275E+01   -.439E+02 0.271E+02 -.288E+01   0.197E+01 -.282E+01 0.164E+00
   0.950E+01 -.519E+01 0.884E+01   -.969E+01 0.558E+01 -.886E+01   0.167E+00 -.372E+00 0.324E-01
   0.228E+02 -.565E+01 0.673E+01   -.234E+02 0.611E+01 -.678E+01   0.644E+00 -.334E+00 0.752E-01
   0.435E+02 -.259E+02 0.292E+01   -.468E+02 0.264E+02 -.302E+01   0.339E+01 -.270E+00 0.138E+00
   0.157E+02 -.198E+02 0.641E+01   -.164E+02 0.201E+02 -.645E+01   0.576E+00 -.448E+00 0.682E-01
   0.610E+01 -.865E+01 0.764E+01   -.615E+01 0.872E+01 -.767E+01   0.440E-01 -.144E+00 0.464E-01
   0.755E+01 -.989E+01 0.851E+01   -.801E+01 0.100E+02 -.854E+01   0.402E+00 -.570E-01 0.323E-01
   0.189E+01 -.182E+02 0.175E+01   -.203E+01 0.188E+02 -.176E+01   0.153E+00 -.483E+00 0.127E-01
   -.261E+01 0.114E+01 0.341E+00   0.270E+01 -.130E+01 -.366E+00   -.857E-01 0.627E-01 0.148E-01
   0.187E+01 0.938E+01 0.391E+00   -.218E+01 -.973E+01 -.440E+00   0.266E+00 0.289E+00 0.340E-01
   -.404E+00 -.596E+01 0.366E+00   0.756E+00 0.617E+01 -.432E+00   -.306E+00 -.131E+00 0.509E-01
   -.359E+01 0.978E+01 0.163E+01   0.372E+01 -.101E+02 -.170E+01   -.156E+00 0.438E+00 0.775E-01
   0.727E+00 0.221E+02 0.323E+01   -.612E+00 -.230E+02 -.330E+01   -.521E-01 0.674E+00 0.513E-01
   0.310E+02 0.432E+02 0.893E+01   -.337E+02 -.469E+02 -.920E+01   0.265E+01 0.357E+01 0.281E+00
   0.424E+01 0.201E+02 0.453E+01   -.438E+01 -.206E+02 -.463E+01   0.678E-01 0.630E+00 0.102E+00
   -.165E+02 0.244E+02 0.945E+01   0.174E+02 -.254E+02 -.956E+01   -.842E+00 0.117E+01 0.673E-01
   -.439E+02 0.397E+02 0.437E+02   0.476E+02 -.412E+02 -.461E+02   -.358E+01 0.132E+01 0.232E+01
   -.536E+02 0.183E+02 0.446E+02   0.568E+02 -.209E+02 -.469E+02   -.301E+01 0.252E+01 0.222E+01
   -.189E+02 -.499E+02 0.146E+02   0.208E+02 0.541E+02 -.148E+02   -.180E+01 -.416E+01 0.225E+00
   -.565E+01 -.217E+02 0.526E+01   0.563E+01 0.220E+02 -.543E+01   0.906E-01 -.339E+00 0.173E+00
   -.505E+01 -.152E+02 0.129E+01   0.514E+01 0.156E+02 -.132E+01   -.945E-01 -.428E+00 0.287E-01
   -.293E+02 -.449E+02 0.304E+01   0.312E+02 0.479E+02 -.329E+01   -.208E+01 -.297E+01 0.245E+00
   -.286E+01 -.379E+01 0.305E+01   0.287E+01 0.399E+01 -.310E+01   0.785E-03 -.922E-01 0.558E-01
   0.238E+01 -.370E+01 0.586E+01   -.238E+01 0.371E+01 -.589E+01   -.342E-02 -.568E-01 0.419E-01
   -.144E+01 0.441E+01 0.305E+01   0.155E+01 -.456E+01 -.309E+01   -.457E-01 0.999E-01 0.377E-01
   -.373E+01 0.335E+01 0.452E+01   0.380E+01 -.327E+01 -.455E+01   -.542E-01 0.302E-01 0.306E-01
   -.396E+01 0.438E+01 0.384E+01   0.398E+01 -.441E+01 -.387E+01   -.441E-01 0.110E+00 0.277E-01
   -.211E+01 0.262E+01 0.356E+01   0.226E+01 -.282E+01 -.359E+01   -.156E+00 0.919E-01 0.364E-01
   -.129E+02 0.114E+02 0.759E+01   0.135E+02 -.116E+02 -.769E+01   -.577E+00 0.185E+00 0.102E+00
   -.874E+01 0.103E+02 0.441E+01   0.892E+01 -.106E+02 -.446E+01   -.162E+00 0.240E+00 0.568E-01
   -.470E+01 0.729E+01 0.291E+01   0.485E+01 -.733E+01 -.294E+01   -.129E+00 0.141E+00 0.358E-01
   -.640E+01 0.658E+01 0.473E+01   0.668E+01 -.674E+01 -.477E+01   -.196E+00 0.122E+00 0.437E-01
   -.277E+02 0.391E+01 0.119E+02   0.291E+02 -.430E+01 -.120E+02   -.139E+01 0.175E+00 0.699E-01
   -.147E+02 0.868E+01 0.838E+01   0.151E+02 -.904E+01 -.849E+01   -.409E+00 0.443E+00 0.111E+00
   0.689E+00 -.650E+00 0.455E+01   -.855E+00 0.607E+00 -.460E+01   0.183E+00 0.344E-01 0.437E-01
   -.588E+01 -.650E+00 0.767E+01   0.611E+01 0.675E+00 -.772E+01   -.302E+00 -.671E-01 0.571E-01
   -.139E+02 -.156E+02 0.130E+02   0.144E+02 0.161E+02 -.132E+02   -.546E+00 -.434E+00 0.147E+00
   -.149E+02 -.124E+02 0.107E+02   0.155E+02 0.128E+02 -.108E+02   -.462E+00 -.370E+00 0.906E-01
   0.262E+01 -.626E+01 0.881E+01   -.257E+01 0.653E+01 -.885E+01   -.321E-01 -.143E+00 0.378E-01
   0.265E+01 -.690E+01 0.917E+01   -.260E+01 0.697E+01 -.920E+01   -.189E-01 -.143E+00 0.457E-01
   0.547E+00 -.750E+01 0.549E+01   -.566E+00 0.758E+01 -.554E+01   0.270E-01 -.150E+00 0.466E-01
   -.619E+01 -.916E+01 0.892E+01   0.625E+01 0.962E+01 -.896E+01   -.769E-01 -.351E+00 0.479E-01
   0.436E-01 -.293E+01 0.805E+01   -.862E-01 0.312E+01 -.807E+01   0.580E-01 -.106E+00 0.338E-01
   0.680E+01 0.344E+02 -.146E+02   0.118E+02 -.339E+02 0.157E+02   -.177E+02 -.526E+00 -.113E+01
   0.441E+02 0.373E+02 0.412E+02   -.544E+02 -.231E+02 -.455E+02   0.989E+01 -.133E+02 0.394E+01
   -.106E+02 -.547E+02 0.564E+02   -.661E+01 0.560E+02 -.613E+02   0.163E+02 -.139E+01 0.449E+01
   -.265E+02 -.210E+02 -.111E+02   0.357E+02 0.441E+01 0.121E+02   -.874E+01 0.158E+02 -.968E+00
   0.419E+02 -.230E+02 0.426E+02   -.500E+02 0.275E+02 -.509E+02   0.618E+01 -.350E+01 0.537E+01
   -.220E+02 0.102E+02 -.478E+03   0.230E+02 -.107E+02 0.480E+03   0.538E+00 -.335E+00 0.159E+01
   -.329E+01 0.204E+01 -.227E+02   -.391E-13 -.455E-12 0.114E-12   0.352E+01 -.163E+01 0.217E+02

 POSITION                                       TOTAL-FORCE (eV/Angst)
      2.48132     -0.43831      9.95072         0.004835     -0.098222     -0.005990
      0.33031      0.78120      9.93848         0.028635     -0.105027      0.000448
      1.04652     -0.44726      9.93472        -0.016339      0.093484      0.007499
      3.19890      0.80272      9.96183         0.017904      0.052058     -0.011178
      2.49066      2.05653      9.96586        -0.005593     -0.075715     -0.007305
      0.31293      3.24867      9.95058        -0.022263     -0.092040     -0.008401
      1.04960      2.02642      9.95463        -0.016476      0.072123     -0.010167
      3.21011      3.32296      9.97526         0.089971     -0.069818      0.002544
      2.44495      4.56828      9.98528         0.012019      0.327112      0.007151
      0.22941      5.71197      9.94623         0.004330     -0.073410     -0.012541
      1.00373      4.50431      9.96081        -0.006080      0.068089     -0.003148
      2.29844      6.97561      9.97899         0.019876     -0.368366      0.049060
      0.15997      8.19157      9.91938        -0.013228     -0.007814      0.005059
      0.88995      6.96842      9.94217         0.076279      0.100441      0.029981
      2.99778      8.22054      9.97750         0.275334      0.208502      0.045560
      2.28150      9.43765      9.94545        -0.002702     -0.178558      0.029903
      0.13632     10.65289      9.91755        -0.008020     -0.096867      0.013347
      0.85622      9.42914      9.92237        -0.044472      0.042556      0.010030
      3.00862     10.66027      9.95480         0.011076      0.089951     -0.004294
      6.59788     11.80499      9.95293        -0.010332     -0.102734     -0.010894
      4.63228      0.75990      9.96191        -0.038757     -0.046396     -0.014634
      5.16374     11.84058      9.96016         0.027657      0.057808     -0.012812
      7.50503      0.71150      9.94647        -0.039474      0.181904      0.000838
      6.79069      1.94643      9.94974         0.061554     -0.180377     -0.020029
      4.65035      3.25528      9.96453         0.122526      0.061702      0.016988
      5.34863      1.99762      9.95736        -0.075433      0.117163      0.007064
      7.52537      3.16066      9.93461         0.060154      0.230384     -0.040684
      6.80761      4.38832      9.90756        -0.054510     -0.140782      0.059170
      7.50741      5.63126      9.89649         0.041657      0.110635      0.055019
      7.36473      8.07475      9.92828        -0.077194     -0.200141      0.015266
      6.58508      9.28885      9.95049         0.073844     -0.042066      0.004271
      4.44325     10.60477      9.96316        -0.017735     -0.044787     -0.001886
      5.12603      9.32675      9.97401        -0.258053     -0.174900      0.003214
      7.30463     10.55624      9.94266         0.009472      0.108113      0.001808
     10.90972     11.85376      9.91792        -0.000286     -0.066533      0.008202
      8.94158      0.72303      9.93391         0.060214     -0.050362     -0.001394
      9.46996     11.82925      9.92439         0.010453      0.104882      0.000731
     11.82358      0.75752      9.92821        -0.036222      0.089845      0.003798
     11.10050      1.97965      9.93085        -0.010012     -0.120040      0.000945
      8.94558      3.17919      9.92675        -0.043567     -0.052986      0.001969
      9.66655      1.95642      9.92966        -0.003591      0.024855      0.006998
     11.81052      3.22406      9.93660         0.011945      0.106705     -0.001349
     11.06847      4.44090      9.92878         0.065848     -0.038583      0.005227
      8.92580      5.64393      9.91664        -0.079333     -0.206489     -0.037063
      9.64572      4.42151      9.92154        -0.042253      0.105394      0.004486
     11.74129      5.69306      9.92926         0.023663     -0.019053     -0.008848
     10.99614      6.92069      9.91424        -0.100344     -0.046623      0.009518
      8.80135      8.11582      9.90935        -0.044479     -0.014713      0.023427
      9.57595      6.90247      9.91084         0.116573      0.066414     -0.002293
     11.67150      8.17219      9.90906         0.011451      0.105867      0.002313
     10.92863      9.38930      9.90495         0.028665     -0.091147      0.011941
      8.74820     10.58556      9.92400         0.009493     -0.087450      0.003645
      9.49076      9.36685      9.90980        -0.028500      0.078471      0.008667
     11.63633     10.63214      9.90961         0.009450      0.072830      0.015303
      3.04946      5.81839     10.02636        -0.608466     -0.021295     -0.095372
      5.40676      4.44263      9.95795         0.405361     -0.212460     -0.018989
      6.74363      6.81343      9.91927         0.434197     -0.175552      0.014195
      4.37447      8.16471     10.01588        -0.258385      0.515446     -0.078425
      4.89142      6.31220     10.02931        -0.606556      0.358650     -0.915274
      5.88282      5.75492     11.63190         0.444217     -0.250077      0.837386
    total drift:                                0.309035      0.397123      0.062721

  FREE ENERGIE OF THE ION-ELECTRON SYSTEM (eV)
  free  energy   TOTEN  =      -630.43713136 eV

  energy  without entropy=     -630.42202061  energy(sigma->0) =     -630.42957598

 stress matrix after NEB project (eV)
    -44.51392      1.27958      0.63123
      1.27960    -45.28912     -0.35054
      0.63109     -0.35049      0.91061
  FORCES: max atom, RMS     1.155104    0.275719
  FORCE total and by dimension    2.135711    0.915274
  Stress total and by dimension   63.543213   45.289123
 writing wavefunctions

 total charge

[...]

 magnetization (x)

# of ion       s       p       d       tot
    1        0.000  -0.000   0.000  -0.000
    2        0.000  -0.000   0.000  -0.000
    3        0.000   0.000   0.000   0.000
    4       -0.000  -0.004   0.000  -0.004
    5        0.000   0.003   0.000   0.003
    6        0.000   0.001   0.000   0.001
    7       -0.000  -0.001   0.000  -0.001
    8       -0.001  -0.006   0.000  -0.006
    9        0.001   0.007   0.000   0.008
   10        0.000   0.005   0.000   0.005
   11       -0.000  -0.001   0.000  -0.001
   12        0.000   0.006   0.000   0.006
   13        0.000  -0.000   0.000  -0.000
   14       -0.000  -0.001   0.000  -0.002
   15        0.000   0.004   0.000   0.004
   16       -0.000  -0.001   0.000  -0.001
   17        0.000   0.001   0.000   0.001
   18       -0.000  -0.001   0.000  -0.001
   19        0.000   0.002   0.000   0.002
   20       -0.000  -0.001   0.000  -0.001
   21        0.000   0.001   0.000   0.002
   22        0.000   0.003   0.000   0.004
   23        0.000   0.001   0.000   0.001
   24       -0.000  -0.000   0.000  -0.000
   25        0.002   0.013   0.000   0.015
   26       -0.000  -0.004   0.000  -0.004
   27        0.001   0.009   0.000   0.010
   28        0.000  -0.005   0.000  -0.005
   29       -0.000  -0.006   0.000  -0.006
   30        0.002   0.014   0.000   0.016
   31       -0.001  -0.007   0.000  -0.007
   32       -0.000  -0.002   0.000  -0.002
   33        0.001   0.009   0.000   0.010
   34        0.000   0.001   0.000   0.001
   35       -0.000  -0.000   0.000  -0.000
   36       -0.000  -0.001   0.000  -0.001
   37        0.000   0.002   0.000   0.002
   38       -0.000  -0.000   0.000  -0.000
   39        0.000   0.001   0.000   0.001
   40        0.000   0.003   0.000   0.003
   41       -0.000  -0.002   0.000  -0.002
   42        0.000   0.001   0.000   0.001
   43       -0.000  -0.001   0.000  -0.001
   44        0.001   0.008   0.000   0.009
   45        0.000   0.004   0.000   0.004
   46       -0.000  -0.001   0.000  -0.001
   47        0.000   0.002   0.000   0.002
   48       -0.000  -0.005   0.000  -0.005
   49        0.000   0.001   0.000   0.001
   50        0.000   0.002   0.000   0.002
   51       -0.000  -0.000   0.000  -0.000
   52       -0.000  -0.004   0.000  -0.004
   53        0.000   0.002   0.000   0.003
   54       -0.000  -0.001   0.000  -0.001
   55        0.003   0.009   0.000   0.012
   56        0.000  -0.023   0.000  -0.023
   57        0.000  -0.019   0.000  -0.018
   58        0.003   0.008   0.000   0.011
   59        0.000   0.018  -1.156  -1.138
   60        0.079   0.033   1.714   1.826
tot          0.092   0.079   0.558   0.730