 vasp.5.4.4.18Apr17-6-g9f103f2a35 (build Feb 25 2019 10:51:38) complex

 executed on             LinuxIFC date 2021.03.09  15:34:21

 INCAR:
 POTCAR:    PAW_PBE C 08Apr2002
 POTCAR:    PAW_PBE N 08Apr2002
 POTCAR:    PAW_PBE Co 02Aug2007
 POTCAR:    PAW_PBE Fe 06Sep2000

 POTCAR:    PAW_PBE C 08Apr2002
   VRHFIN =C: s2p2

   TITEL  = PAW_PBE C 08Apr2002
   POMASS =   12.011; ZVAL   =    4.000    mass and valenz
   ENMAX  =  400.000; ENMIN  =  300.000 eV

 POTCAR:    PAW_PBE N 08Apr2002
   VRHFIN =N: s2p3

   TITEL  = PAW_PBE N 08Apr2002
   POMASS =   14.001; ZVAL   =    5.000    mass and valenz
   ENMAX  =  400.000; ENMIN  =  300.000 eV

 POTCAR:    PAW_PBE Co 02Aug2007
   VRHFIN =Co: d8 s1

   TITEL  = PAW_PBE Co 02Aug2007
   POMASS =   58.933; ZVAL   =    9.000    mass and valenz
   ENMAX  =  267.968; ENMIN  =  200.976 eV

 POTCAR:    PAW_PBE Fe 06Sep2000
   VRHFIN =Fe:  d7 s1

   TITEL  = PAW_PBE Fe 06Sep2000
   POMASS =   55.847; ZVAL   =    8.000    mass and valenz
   ENMAX  =  267.882; ENMIN  =  200.911 eV

  PAW_PBE C 08Apr2002                   :
  PAW_PBE N 08Apr2002                   :
  PAW_PBE Co 02Aug2007                  :
  PAW_PBE Fe 06Sep2000                  :

 POSCAR:  C  N Co Fe
  positions in cartesian coordinates
 exchange correlation table for  LEXCH =        8
   RHO(1)=    0.500       N(1)  =     2000
   RHO(2)=  100.500       N(2)  =     4000

 VTST: version 3.2, (02/03/18)

 CHAIN: initializing optimizer

 OPT: Using VASP Conjugate-Gradient optimizer
 CHAIN: Read ICHAIN            0

 POSCAR:  C  N Co Fe
  positions in cartesian coordinates

 ion  position               nearest neighbor table
   1  0.222  0.001  0.491-  19 1.42   3 1.43   4 1.44
   2  0.057  0.101  0.488-   3 1.43  37 1.43   7 1.44
   3  0.111  0.000  0.488-   1 1.43   2 1.43  17 1.44
   4  0.278  0.102  0.491-  21 1.42   5 1.44   1 1.44
   5  0.224  0.204  0.495-   7 1.44   4 1.44   8 1.45
   6  0.056  0.301  0.493-   7 1.43  41 1.43  11 1.43
   7  0.113  0.202  0.492-   6 1.43   5 1.44   2 1.44
   8  0.281  0.304  0.504-  25 1.45   5 1.45   9 1.47
   9  0.222  0.405  0.508-  54 1.38  11 1.44   8 1.47
  10  0.053  0.501  0.499-  14 1.43  45 1.43  11 1.43
  11  0.110  0.401  0.499-  10 1.43   6 1.43   9 1.44
  12  0.218  0.600  0.513-  54 1.39  14 1.43  15 1.45
  13  0.053  0.700  0.496-  14 1.43  49 1.43  18 1.43
  14  0.108  0.601  0.502-  13 1.43  10 1.43  12 1.43
  15  0.273  0.703  0.515-  16 1.42  12 1.45  29 1.46
  16  0.220  0.800  0.499-  15 1.42  18 1.43  19 1.45
  17  0.055  0.900  0.489-  18 1.43  53 1.43   3 1.44
  18  0.109  0.800  0.493-  17 1.43  16 1.43  13 1.43
  19  0.276  0.901  0.496-   1 1.42  31 1.43  16 1.45
  20  0.555  0.999  0.487-  33 1.42  22 1.42  23 1.42
  21  0.388  0.100  0.488-   4 1.42  26 1.43  22 1.43
  22  0.444  0.000  0.488-  20 1.42  21 1.43  31 1.43
  23  0.611  0.097  0.483-  24 1.42  20 1.42  35 1.42
  24  0.556  0.196  0.486-  23 1.42  27 1.42  26 1.42
  25  0.394  0.298  0.505-  55 1.38  26 1.43   8 1.45
  26  0.445  0.199  0.491-  24 1.42  21 1.43  25 1.43
  27  0.614  0.294  0.491-  28 1.40  39 1.42  24 1.42
  28  0.560  0.387  0.511-  55 1.37  56 1.38  27 1.40
  29  0.381  0.715  0.537-  57 1.32  32 1.46  15 1.46
  30  0.556  0.803  0.509-  58 1.38  33 1.43  32 1.44
  31  0.388  0.901  0.497-  32 1.42  22 1.43  19 1.43
  32  0.444  0.805  0.513-  31 1.42  30 1.44  29 1.46
  33  0.610  0.900  0.493-  20 1.42  51 1.42  30 1.43
  34  0.889  0.999  0.485-  53 1.42  36 1.43  37 1.44
  35  0.723  0.098  0.482-  36 1.42  23 1.42  40 1.43
  36  0.778  0.999  0.485-  35 1.42  34 1.43  51 1.43
  37  0.945  0.100  0.485-  38 1.42   2 1.43  34 1.44
  38  0.890  0.199  0.485-  37 1.42  40 1.42  41 1.43
  39  0.724  0.296  0.489-  27 1.42  40 1.42  44 1.43
  40  0.779  0.198  0.484-  39 1.42  38 1.42  35 1.43
  41  0.945  0.300  0.489-   6 1.43  42 1.43  38 1.43
  42  0.889  0.399  0.493-  44 1.42  45 1.43  41 1.43
  43  0.719  0.493  0.508-  56 1.38  44 1.43  48 1.46
  44  0.778  0.397  0.495-  42 1.42  43 1.43  39 1.43
  45  0.942  0.500  0.497-  42 1.43  10 1.43  46 1.44
  46  0.883  0.599  0.500-  45 1.44  49 1.44  48 1.45
  47  0.717  0.702  0.508-  58 1.38  52 1.44  48 1.46
  48  0.771  0.598  0.507-  46 1.45  43 1.46  47 1.46
  49  0.941  0.699  0.496-  50 1.42  13 1.43  46 1.44
  50  0.887  0.799  0.492-  49 1.42  52 1.43  53 1.44
  51  0.721  0.900  0.491-  33 1.42  52 1.43  36 1.43
  52  0.775  0.799  0.496-  50 1.43  51 1.43  47 1.44
  53  0.943  0.899  0.488-  34 1.42  17 1.43  50 1.44
  54  0.269  0.502  0.521-   9 1.38  12 1.39  59 1.89
  55  0.455  0.387  0.522-  28 1.37  25 1.38  59 1.84
  56  0.615  0.481  0.523-  28 1.38  43 1.38  60 1.90
  57  0.418  0.647  0.582-  29 1.32  59 1.77  60 1.86
  58  0.612  0.709  0.521-  47 1.38  30 1.38  60 1.98
  59  0.402  0.509  0.562-  57 1.77  55 1.84  54 1.89  60 2.21
  60  0.553  0.592  0.576-  57 1.86  56 1.90  58 1.98  59 2.21

  LATTYP: Found a simple orthorhombic cell.
 ALAT       =    12.4000000000
 B/A-ratio  =     1.0330645161
 C/A-ratio  =     1.6129032258

  Lattice vectors:

 A1 = (   0.0000000000, -12.4000000000,   0.0000000000)
 A2 = ( -12.8100000000,   0.0000000000,   0.0000000000)
 A3 = (   0.0000000000,   0.0000000000, -20.0000000000)

Analysis of symmetry for initial positions (statically):
 Subroutine PRICEL returns:
 Original cell was already a primitive cell.

 Routine SETGRP: Setting up the symmetry group for a
 simple orthorhombic supercell.

 Subroutine GETGRP returns: Found  1 space group operations
 (whereof  1 operations were pure point group operations)
 out of a pool of  8 trial point group operations.

The static configuration has the point symmetry C_1 .

Analysis of symmetry for dynamics (positions and initial velocities):
 Subroutine PRICEL returns:
 Original cell was already a primitive cell.

[...]

The dynamic configuration has the point symmetry C_1 .

Analysis of structural, dynamic, and magnetic symmetry:
 Subroutine PRICEL returns:
 Original cell was already a primitive cell.

 Routine SETGRP: Setting up the symmetry group for a
 simple orthorhombic supercell.

 Subroutine GETGRP returns: Found  1 space group operations
 (whereof  1 operations were pure point group operations)
 out of a pool of  8 trial point group operations.

The magnetic configuration has the point symmetry C_1 .

 Subroutine INISYM returns: Found  1 space group operations
 (whereof  1 operations are pure point group operations),
 and found     1 'primitive' translations

 KPOINTS: KPOINTS created by Atomic Simulation Env

Automatic generation of k-mesh.
Space group operators:
 irot       det(A)        alpha          n_x          n_y          n_z        tau_x        tau_y        tau_z
    1     1.000000     0.000000     1.000000     0.000000     0.000000     0.000000     0.000000     0.000000

 Subroutine IBZKPT returns following result:

 Found      2 irreducible k-points:

 Following reciprocal coordinates:
            Coordinates               Weight
  0.250000  0.250000  0.000000      2.000000
 -0.250000  0.250000  0.000000      2.000000

 Following cartesian coordinates:
            Coordinates               Weight
  0.019516  0.020161  0.000000      2.000000
 -0.019516  0.020161  0.000000      2.000000

 Subroutine IBZKPT_HF returns following result:

 Found      4 k-points in 1st BZ
 the following      4 k-points will be used (e.g. in the exchange kernel)
 Following reciprocal coordinates:   # in IRBZ
  0.250000  0.250000  0.000000    0.25000000   1 t-inv F
 -0.250000  0.250000  0.000000    0.25000000   2 t-inv F
 -0.250000 -0.250000  0.000000    0.25000000   1 t-inv T
  0.250000 -0.250000  0.000000    0.25000000   2 t-inv T

 SYSTEM =  unknown system
 POSCAR =   C  N Co Fe

 Startparameter for this run:
   NWRITE =      2    write-flag & timer
   PREC   = accura    normal or accurate (medium, high low for compatibility)
   ISTART =      1    job   : 0-new  1-cont  2-samecut
   ICHARG =      0    charge: 1-file 2-atom 10-const
   ISPIN  =      2    spin polarized calculation?
   LNONCOLLINEAR =      F non collinear calculations
   LSORBIT =      F    spin-orbit coupling
   INIWAV =      1    electr: 0-lowe 1-rand  2-diag
   LASPH  =      T    aspherical Exc in radial PAW
   METAGGA=      F    non-selfconsistent MetaGGA calc.

 Electronic Relaxation 1
   ENCUT  =  500.0 eV  36.75 Ry    6.06 a.u.  23.36 22.61 36.46*2*pi/ulx,y,z
   ENINI  =  500.0     initial cutoff
   ENAUG  =  644.9 eV  augmentation charge cutoff
   NELM   =    250;   NELMIN=  2; NELMDL=  0     # of ELM steps
   EDIFF  = 0.1E-03   stopping-criterion for ELM
   LREAL  =      F    real-space projection
   NLSPLINE    = F    spline interpolate recip. space projectors
   LCOMPAT=      F    compatible to vasp.4.4
   GGA_COMPAT  = T    GGA compatible to vasp.4.4-vasp.4.6
   LMAXPAW     = -100 max onsite density
   LMAXMIX     =    2 max onsite mixed and CHGCAR
   VOSKOWN=      0    Vosko Wilk Nusair interpolation
   ROPT   =    0.00000   0.00000   0.00000   0.00000
 Ionic relaxation
   EDIFFG = -.3E-01   stopping-criterion for IOM
   NSW    =      0    number of steps for IOM
   NBLOCK =      1;   KBLOCK =      1    inner block; outer block
   IBRION =     -1    ionic relax: 0-MD 1-quasi-New 2-CG
   NFREE  =      1    steps in history (QN), initial steepest desc. (CG)
   ISIF   =      2    stress and relaxation
   IWAVPR =     10    prediction:  0-non 1-charg 2-wave 3-comb
   ISYM   =      3    0-nonsym 1-usesym 2-fastsym
   LCORR  =      T    Harris-Foulkes like correction to forces

   POTIM  = 0.5000    time-step for ionic-motion
   TEIN   =    0.0    initial temperature
   TEBEG  =    0.0;   TEEND  =   0.0 temperature during run
   SMASS  =  -3.00    Nose mass-parameter (am)
   estimated Nose-frequenzy (Omega)   =  0.10E-29 period in steps =****** mass=  -0.375E-26a.u.
   SCALEE = 1.0000    scale energy and forces
   NPACO  =    256;   APACO  = 16.0  distance and # of slots for P.C.
   PSTRESS=    0.0 pullay stress

  Mass of Ions in am
   POMASS =  12.01 14.00 58.93 55.85
  Ionic Valenz
   ZVAL   =   4.00  5.00  9.00  8.00
  Atomic Wigner-Seitz radii
  virtual crystal weights
   VCA    =   1.00  1.00  1.00  1.00
   NELECT =     254.0000    total number of electrons
   NUPDOWN=      -1.0000    fix difference up-down

 DOS related values:
   EMIN   =  10.00;   EMAX   =-10.00  energy-range for DOS
   EFERMI =   0.00
   ISMEAR =     0;   SIGMA  =   0.10  broadening in eV -4-tet -1-fermi 0-gaus

 Electronic relaxation 2 (details)
   IALGO  =     53    algorithm
   LDIAG  =      T    sub-space diagonalisation (order eigenvalues)
   LSUBROT=      F    optimize rotation matrix (better conditioning)
   TURBO    =      0    0=normal 1=particle mesh
   IRESTART =      0    0=no restart 2=restart with 2 vectors
   NREBOOT  =      0    no. of reboots
   NMIN     =      0    reboot dimension
   EREF     =   0.00    reference energy to select bands
   IMIX   =      4    mixing-type and parameters
     AMIX     =   0.40;   BMIX     =  1.00
     AMIX_MAG =   1.60;   BMIX_MAG =  1.00
     AMIN     =   0.10
     WC   =   100.;   INIMIX=   1;  MIXPRE=   1;  MAXMIX= -45

 Intra band minimization:
[...]
   48        0.845   1.739   0.000   2.584
   49        0.862   1.769   0.000   2.631
   50        0.866   1.760   0.000   2.626
   51        0.868   1.762   0.000   2.630
   52        0.864   1.775   0.000   2.640
   53        0.864   1.769   0.000   2.633
   54        1.228   2.667   0.000   3.895
   55        1.232   2.686   0.000   3.918
   56        1.229   2.700   0.000   3.929
   57        1.263   2.601   0.000   3.864
   58        1.233   2.678   0.000   3.911
   59        0.488   0.661   7.452   8.602
   60        0.469   0.562   6.280   7.312
tot         52.922 107.800  13.733 174.454

 magnetization (x)

[...]

  FORCE on cell =-STRESS in cart. coord.  units (eV):
  Direction    XX          YY          ZZ          XY          YZ          ZX
  Alpha Z   106.30875   106.30875   106.30875
  Ewald   49798.93592 49565.90044-57827.76684    37.74469   160.31429    23.43714
  Hartree 49374.41736 49203.53724-48069.08180    22.01207   137.45167    -4.22241
  E(xc)    -745.38975  -745.01014  -758.99266     0.00374    -0.18887    -0.16877
  Local  ************************102568.46371   -57.56969  -301.04866   -18.55004
  n-local  -142.78699  -142.17338  -134.37780     1.28000     0.24844     0.48935
  augment   167.06084   163.34385   175.34032    -0.20855    -0.98464     1.50026
  Kinetic  3779.78639  3772.77544  4266.41649   -12.72487     3.16750    -1.32491
  Fock     -350.20149  -347.42161  -328.15108    -1.32470     2.05761    -1.76608
  Total     -33.74581   -41.07160    -1.84091   -10.78731     1.01733    -0.60547
  in kB     -17.01883   -20.71340    -0.92842    -5.44030     0.51306    -0.30535

 VOLUME and BASIS-vectors are now :
  energy-cutoff  :      500.00
  volume of cell :     3176.88
      direct lattice vectors                 reciprocal lattice vectors
    12.810000000  0.000000000  0.000000000     0.078064012  0.000000000  0.000000000
     0.000000000 12.400000000  0.000000000     0.000000000  0.080645161  0.000000000
     0.000000000  0.000000000 20.000000000     0.000000000  0.000000000  0.050000000

  length of vectors
    12.810000000 12.400000000 20.000000000     0.078064012  0.080645161  0.050000000

 FORCES acting on ions:
    Electron-Ion                     Ewald-Force                    Non-Local-Force
   0.572E+01 -.621E+01 0.409E+02   -.562E+01 0.594E+01 -.410E+02   -.587E-01 0.178E+00 0.913E-01
   -.354E+00 -.223E+01 0.380E+02   0.617E+00 0.211E+01 -.380E+02   -.275E+00 0.419E-01 0.518E-01
   0.582E+01 -.122E+00 0.400E+02   -.575E+01 0.110E+00 -.399E+02   -.116E+00 0.543E-01 -.816E-01
   0.146E+02 0.277E+01 0.378E+02   -.148E+02 -.287E+01 -.376E+02   0.242E+00 0.933E-01 -.197E+00
   0.850E+01 0.448E+01 0.221E+02   -.848E+01 -.449E+01 -.221E+02   -.321E-01 -.139E-01 0.649E-01
   0.324E+01 0.589E+01 0.292E+02   -.312E+01 -.626E+01 -.292E+02   -.115E+00 0.321E+00 0.384E-01
   0.432E+01 0.793E+01 0.268E+02   -.425E+01 -.803E+01 -.267E+02   -.772E-01 0.141E+00 -.666E-01
   0.225E+02 0.200E+02 0.282E+01   -.226E+02 -.201E+02 -.254E+01   0.813E-01 0.135E-01 -.269E+00
   0.317E+02 0.531E+02 0.902E+01   -.332E+02 -.559E+02 -.979E+01   0.147E+01 0.297E+01 0.764E+00
   0.151E+02 0.351E+01 0.211E+02   -.152E+02 -.340E+01 -.210E+02   0.150E+00 -.682E-01 -.117E+00
   0.165E+02 0.145E+02 0.241E+02   -.167E+02 -.147E+02 -.243E+02   0.221E+00 0.224E+00 0.129E+00
   0.384E+02 -.381E+02 0.316E+01   -.397E+02 0.413E+02 -.360E+01   0.130E+01 -.327E+01 0.482E+00
   0.911E+01 -.750E+01 0.330E+02   -.913E+01 0.778E+01 -.329E+02   0.150E-01 -.226E+00 -.811E-01
   0.205E+02 -.797E+01 0.253E+02   -.206E+02 0.829E+01 -.255E+02   0.758E-01 -.325E+00 0.195E+00
   0.258E+02 -.173E+02 0.360E+01   -.252E+02 0.171E+02 -.367E+01   -.841E+00 0.227E+00 -.537E-01
   0.124E+02 -.154E+02 0.388E+02   -.121E+02 0.152E+02 -.389E+02   -.202E+00 0.738E-01 0.247E+00
   0.182E+01 -.600E+01 0.457E+02   -.165E+01 0.607E+01 -.458E+02   -.198E+00 -.686E-01 0.716E-01
   0.884E+01 -.521E+01 0.452E+02   -.878E+01 0.527E+01 -.452E+02   -.107E+00 -.606E-01 0.109E+00
   0.111E+02 -.644E+01 0.361E+02   -.112E+02 0.658E+01 -.357E+02   0.533E-01 -.164E-01 -.329E+00
   -.165E+01 -.167E+01 0.685E+02   0.131E+01 0.167E+01 -.683E+02   0.301E+00 0.153E-01 -.137E+00
   0.726E+01 0.551E+01 0.626E+02   -.776E+01 -.582E+01 -.626E+02   0.456E+00 0.319E+00 0.130E+00
   0.565E+01 -.221E+01 0.679E+02   -.582E+01 0.207E+01 -.680E+02   0.192E+00 0.157E+00 0.144E+00
   -.623E+01 0.784E+01 0.785E+02   0.631E+01 -.818E+01 -.786E+02   -.547E-01 0.306E+00 0.144E+00
   -.193E+01 0.172E+02 0.783E+02   0.172E+01 -.178E+02 -.781E+02   0.179E+00 0.569E+00 -.588E-01
   0.398E+02 0.461E+02 0.262E+02   -.419E+02 -.488E+02 -.271E+02   0.230E+01 0.283E+01 0.956E+00
   0.104E+02 0.187E+02 0.655E+02   -.107E+02 -.192E+02 -.657E+02   0.297E+00 0.375E+00 0.175E+00
   -.170E+02 0.240E+02 0.823E+02   0.174E+02 -.249E+02 -.830E+02   -.354E+00 0.721E+00 0.686E+00
   -.292E+02 0.416E+02 0.291E+02   0.306E+02 -.446E+02 -.306E+02   -.153E+01 0.318E+01 0.176E+01
   0.408E+02 -.837E+02 -.642E+02   -.411E+02 0.843E+02 0.631E+02   0.645E+00 -.134E+01 0.163E+01
   0.125E+02 -.411E+02 0.137E+02   -.147E+02 0.437E+02 -.142E+02   0.222E+01 -.272E+01 0.618E+00
   0.885E+01 -.125E+02 0.444E+02   -.895E+01 0.122E+02 -.445E+02   0.155E+00 0.284E+00 0.160E+00
   0.190E+01 -.231E+02 0.205E+01   -.206E+01 0.226E+02 -.205E+01   0.250E+00 0.618E+00 -.145E+00
   -.503E+01 -.131E+02 0.544E+02   0.484E+01 0.133E+02 -.547E+02   0.214E+00 -.495E-01 0.290E+00
   -.657E+01 -.348E+01 0.478E+02   0.670E+01 0.344E+01 -.477E+02   -.159E+00 0.173E-01 -.196E-01
   -.899E+01 0.232E+01 0.672E+02   0.898E+01 -.243E+01 -.671E+02   -.386E-01 0.933E-01 -.920E-01
   -.827E+01 0.110E+01 0.561E+02   0.847E+01 -.104E+01 -.562E+02   -.166E+00 -.270E-01 0.993E-01
   -.295E+01 0.432E+01 0.462E+02   0.322E+01 -.439E+01 -.463E+02   -.228E+00 0.609E-01 0.479E-01
   -.841E+01 0.205E+01 0.494E+02   0.862E+01 -.212E+01 -.493E+02   -.218E+00 0.785E-01 -.431E-01
   -.208E+02 0.958E+01 0.635E+02   0.212E+02 -.978E+01 -.633E+02   -.493E+00 0.219E+00 -.158E+00
   -.112E+02 0.934E+01 0.655E+02   0.115E+02 -.960E+01 -.656E+02   -.232E+00 0.261E+00 0.141E+00
   -.357E+01 0.508E+01 0.414E+02   0.376E+01 -.515E+01 -.415E+02   -.151E+00 0.667E-01 0.740E-01
   -.111E+02 0.345E+01 0.382E+02   0.116E+02 -.333E+01 -.382E+02   -.453E+00 -.102E+00 0.804E-01
   -.593E+02 -.136E+02 0.141E+02   0.628E+02 0.139E+02 -.150E+02   -.374E+01 -.470E+00 0.991E+00
   -.240E+02 0.541E+01 0.466E+02   0.246E+02 -.547E+01 -.467E+02   -.461E+00 0.662E-01 0.129E+00
   -.155E+01 -.226E+01 0.218E+02   0.151E+01 0.244E+01 -.217E+02   0.483E-01 -.182E+00 -.107E+00
   -.532E+01 -.335E+01 0.136E+02   0.524E+01 0.346E+01 -.136E+02   0.265E-01 -.106E+00 -.913E-03
   -.559E+02 0.149E+01 0.103E+02   0.588E+02 -.139E+01 -.111E+02   -.316E+01 0.162E+00 0.824E+00
   -.223E+02 -.475E+01 -.107E+01   0.225E+02 0.502E+01 0.100E+01   -.606E-01 -.306E+00 0.397E-01
   -.151E+01 -.199E-01 0.259E+02   0.165E+01 0.273E-01 -.258E+02   -.115E+00 0.291E-01 -.671E-01
   -.794E+01 -.648E+01 0.363E+02   0.824E+01 0.638E+01 -.363E+02   -.314E+00 0.107E+00 0.794E-01
   -.137E+02 -.104E+02 0.454E+02   0.137E+02 0.105E+02 -.452E+02   -.107E+00 -.152E+00 -.143E+00
   -.191E+02 -.568E+01 0.335E+02   0.195E+02 0.569E+01 -.336E+02   -.331E+00 -.570E-02 0.829E-01
   -.125E+01 0.213E+00 0.437E+02   0.146E+01 -.237E+00 -.437E+02   -.158E+00 0.295E-01 0.200E-01
   0.374E+02 0.144E+02 -.276E+02   -.182E+02 -.139E+02 0.327E+02   -.183E+02 -.555E+00 -.486E+01
   0.212E+02 0.530E+02 -.445E+02   -.306E+02 -.375E+02 0.524E+02   0.902E+01 -.151E+02 -.778E+01
   -.423E+02 -.916E+01 -.478E+02   0.324E+02 0.246E+02 0.539E+02   0.956E+01 -.150E+02 -.606E+01
   0.498E+02 -.126E+03 -.500E+03   -.476E+02 0.119E+03 0.520E+03   -.256E+01 0.712E+01 -.188E+02
   -.104E+02 -.246E+01 -.357E+02   -.100E+01 -.156E+02 0.412E+02   0.111E+02 0.172E+02 -.563E+01
   0.101E+03 0.132E+03 -.544E+03   -.103E+03 -.132E+03 0.542E+03   0.446E-01 -.112E+01 0.195E+01
   -.195E+03 -.378E+02 -.666E+03   0.192E+03 0.389E+02 0.662E+03   0.485E+01 -.895E-02 0.523E+01
   -.108E+02 0.189E+01 0.300E+02   -.739E-12 0.284E-13 -.796E-12   0.101E+02 -.203E+01 -.265E+02

 POSITION                                       TOTAL-FORCE (eV/Angst)
      2.84331      0.00927      9.81047         0.036249     -0.091671      0.050348
      0.72886      1.25013      9.75507        -0.029833     -0.082779      0.022974
      1.41843      0.00214      9.76857        -0.044224      0.050110      0.021081
      3.55592      1.26281      9.82021         0.053340     -0.001016      0.015549
      2.87473      2.52507      9.90621        -0.019683     -0.037195      0.012515
      0.72181      3.72986      9.86143         0.000117     -0.034663     -0.010544
      1.44138      2.49867      9.83881        -0.007303      0.055268     -0.000278
      3.59980      3.76936     10.08685        -0.066310     -0.066544     -0.001393
      2.83893      5.02071     10.16826         0.000310      0.438526      0.038937
      0.68134      6.20993      9.98207         0.028860      0.037712      0.016148
      1.41350      4.97849      9.98508         0.026340     -0.014632     -0.008247
      2.79763      7.44509     10.26019         0.066641     -0.241549      0.063738
      0.67303      8.67903      9.92038        -0.005035      0.035497      0.033747
      1.38658      7.44995     10.03075        -0.006756     -0.024281      0.035373
      3.49984      8.71314     10.29760        -0.285325      0.116499     -0.131542
      2.81572      9.92334      9.98799         0.034076     -0.162074      0.124945
      0.69886     11.15979      9.77240        -0.044299     -0.000996      0.040878
      1.39301      9.91790      9.86387        -0.044240     -0.001937      0.056449
      3.54067     11.17124      9.91007        -0.043083      0.129238      0.002558
      7.10451     12.38516      9.73194        -0.027012      0.011548      0.058092
      4.97389      1.24094      9.76402        -0.024506      0.025403      0.066948
      5.68275      0.00187      9.76784         0.030743      0.023023      0.061026
      7.83174      1.20813      9.65575         0.018248     -0.010796      0.034849
      7.12467      2.43302      9.72837        -0.010844      0.083076      0.096455
      5.04698      3.70111     10.09583         0.386028      0.323574      0.189345
      5.70374      2.46408      9.81706         0.045573     -0.096518      0.039826
      7.86009      3.64034      9.82726         0.036472     -0.135178      0.038273
      7.17836      4.80496     10.21019        -0.195867      0.299232      0.304356
      4.87964      8.87069     10.74263         0.389879     -0.859942      0.717430
      7.11682      9.95554     10.18557         0.217883     -0.232923      0.125533
      4.97386     11.17548      9.94649         0.066808     -0.073960      0.116459
      5.68184      9.98794     10.26597         0.084589      0.234050     -0.151275
      7.81491     11.16017      9.86485         0.043732      0.088907      0.081723
     11.38875     12.39128      9.70085        -0.037744     -0.022252      0.019302
      9.25661      1.21703      9.64713        -0.051558     -0.015720      0.046819
      9.96185     12.38231      9.69266         0.029481      0.032877      0.018067
     12.11114      1.23462      9.70168         0.032159     -0.000810      0.017462
     11.40367      2.47009      9.70505        -0.015567      0.005759      0.017953
      9.27424      3.67541      9.77383        -0.089041      0.024879      0.056533
      9.98002      2.45192      9.67214         0.024442      0.013024      0.032353
     12.10468      3.71757      9.78768         0.030649     -0.000988      0.008294
     11.38292      4.95009      9.85654        -0.026315      0.015783      0.018380
      9.21638      6.11091     10.16025        -0.410351     -0.163830      0.101757
      9.96132      4.92330      9.89660         0.082600      0.007349     -0.000121
     12.06112      6.20128      9.94006         0.009370     -0.020586     -0.013345
     11.31541      7.42940      9.99261        -0.043796     -0.011010      0.005896
      9.18517      8.70677     10.15823        -0.460329      0.287231      0.066994
      9.87307      7.41544     10.13391         0.155904     -0.056056     -0.029144
     12.05025      8.66454      9.91273         0.023727      0.044937     -0.000750
     11.35838      9.90726      9.84474        -0.030050     -0.002750      0.022710
      9.23840     11.15389      9.81325        -0.070392     -0.045100      0.035785
      9.93306      9.91053      9.91825         0.077800      0.011163     -0.000893
     12.08157     11.14749      9.75505         0.044040      0.013784      0.019608
      3.44609      6.22938     10.42688        -0.650013     -0.129074     -0.221082
      5.82452      4.79398     10.43673         0.370930     -0.870532     -0.529582
      7.87386      5.96620     10.46648         0.514186     -0.836098     -0.544427
      5.35490      8.02295     11.63592        -0.624916      0.766785     -0.600924
      7.83410      8.79778     10.41799         0.705843      0.671104     -0.629035
      5.14732      6.30963     11.23885        -0.896199     -0.183855     -0.452917
      7.07898      7.33711     11.51622         0.593573      0.680981      0.372033
    total drift:                                0.000456      0.003774      0.014002

  FREE ENERGIE OF THE ION-ELECTRON SYSTEM (eV)
  free  energy   TOTEN  =      -629.30803848 eV

  energy  without entropy=     -629.30803848  energy(sigma->0) =     -629.30803848

 stress matrix after NEB project (eV)
    -33.74581    -10.78673     -0.60547
    -10.78731    -41.07160      1.01843
     -0.61053      1.01733     -1.84091
  FORCES: max atom, RMS     1.185838    0.426531
  FORCE total and by dimension    3.303893    0.896199
  Stress total and by dimension   55.358612   41.071597
 writing wavefunctions
 vacuum level on the upper side and lower side of the slab         1.551         1.549

 total charge

[...]

 magnetization (x)

# of ion       s       p       d       tot
    1       -0.000  -0.002   0.000  -0.002
    2       -0.000  -0.002   0.000  -0.003
    3        0.000   0.003   0.000   0.003
    4        0.000   0.003   0.000   0.003
    5       -0.000  -0.003   0.000  -0.003
    6       -0.000  -0.003   0.000  -0.004
    7        0.000   0.003   0.000   0.004
    8        0.001   0.006   0.000   0.006
    9       -0.000  -0.005   0.000  -0.005
   10       -0.000  -0.002   0.000  -0.002
   11        0.000   0.002   0.000   0.002
   12       -0.000  -0.001   0.000  -0.001
   13       -0.000  -0.002   0.000  -0.002
   14       -0.000   0.001   0.000   0.000
   15        0.000  -0.000   0.000  -0.000
   16       -0.000  -0.001   0.000  -0.001
   17       -0.000  -0.002   0.000  -0.002
   18        0.000   0.002   0.000   0.002
   19        0.000   0.003   0.000   0.003
   20       -0.000  -0.003   0.000  -0.003
   21       -0.000  -0.002   0.000  -0.003
   22        0.000   0.002   0.000   0.002
   23        0.000   0.003   0.000   0.004
   24       -0.000  -0.005   0.000  -0.005
   25       -0.001  -0.009   0.000  -0.010
   26        0.000   0.004   0.000   0.004
   27        0.000   0.002   0.000   0.002
   28       -0.000  -0.003   0.000  -0.003
   29        0.001   0.014   0.000   0.016
   30        0.000  -0.002   0.000  -0.002
   31       -0.000  -0.002   0.000  -0.002
   32       -0.000   0.002   0.000   0.001
   33        0.000   0.003   0.000   0.004
   34       -0.000  -0.002   0.000  -0.003
   35       -0.000  -0.003   0.000  -0.003
   36        0.000   0.002   0.000   0.003
   37        0.000   0.002   0.000   0.003
   38       -0.000  -0.002   0.000  -0.002
   39       -0.000  -0.002   0.000  -0.002
   40        0.000   0.002   0.000   0.002
   41        0.000   0.002   0.000   0.003
   42       -0.000  -0.003   0.000  -0.003
   43        0.001  -0.000   0.000   0.001
   44        0.000   0.003   0.000   0.003
   45        0.000   0.003   0.000   0.003
   46       -0.000  -0.003   0.000  -0.003
   47        0.001  -0.002   0.000  -0.002
   48        0.001   0.007   0.000   0.008
   49        0.000   0.004   0.000   0.005
   50       -0.000  -0.002   0.000  -0.002
   51       -0.000  -0.004   0.000  -0.004
   52        0.001   0.006   0.000   0.007
   53        0.000   0.002   0.000   0.002
   54       -0.005  -0.014   0.000  -0.019
   55        0.001   0.012   0.000   0.012
   56       -0.002  -0.001   0.000  -0.003
   57       -0.003  -0.044   0.000  -0.048
   58        0.005   0.020   0.000   0.025
   59        0.001  -0.016   0.885   0.870
   60        0.013   0.047   2.901   2.961
tot          0.013   0.017   3.787   3.817