 vasp.5.4.4.18Apr17-6-g9f103f2a35 (build Feb 25 2019 10:51:38) complex

 executed on             LinuxIFC date 2021.07.23  15:56:38

 INCAR:
 POTCAR:    PAW_PBE C 08Apr2002
 POTCAR:    PAW_PBE N 08Apr2002
 POTCAR:    PAW_PBE Fe 06Sep2000
 POTCAR:    PAW_PBE V 08Apr2002

 POTCAR:    PAW_PBE C 08Apr2002
   VRHFIN =C: s2p2

   TITEL  = PAW_PBE C 08Apr2002
   POMASS =   12.011; ZVAL   =    4.000    mass and valenz
   ENMAX  =  400.000; ENMIN  =  300.000 eV

 POTCAR:    PAW_PBE N 08Apr2002
   VRHFIN =N: s2p3

[...]

 POTCAR:    PAW_PBE Fe 06Sep2000
   VRHFIN =Fe:  d7 s1

   TITEL  = PAW_PBE Fe 06Sep2000
   POMASS =   55.847; ZVAL   =    8.000    mass and valenz
   ENMAX  =  267.882; ENMIN  =  200.911 eV

 POTCAR:    PAW_PBE V 08Apr2002
   VRHFIN =V: p6 d4 s1

   TITEL  = PAW_PBE V 08Apr2002
   POMASS =   50.941; ZVAL   =    5.000    mass and valenz
   ENMAX  =  192.543; ENMIN  =  144.408 eV

  PAW_PBE C 08Apr2002                   :
  PAW_PBE N 08Apr2002                   :
  PAW_PBE Fe 06Sep2000                  :
  PAW_PBE V 08Apr2002                   :

 POSCAR:  C  N Fe  V
  positions in cartesian coordinates
 exchange correlation table for  LEXCH =        8
   RHO(1)=    0.500       N(1)  =     2000
   RHO(2)=  100.500       N(2)  =     4000

 VTST: version 3.2, (02/03/18)

 CHAIN: initializing optimizer

 OPT: Using VASP Conjugate-Gradient optimizer
 CHAIN: Read ICHAIN            0

 POSCAR:  C  N Fe  V
  positions in cartesian coordinates

 ion  position               nearest neighbor table
   1  0.222  0.998  0.501-   3 1.42  17 1.43   4 1.43
   2  0.054  0.098  0.500-  34 1.42   7 1.43   3 1.44
   3  0.111  0.998  0.501-   1 1.42  15 1.43   2 1.44
   4  0.277  0.097  0.501-  19 1.42   5 1.42   1 1.43
   5  0.221  0.195  0.500-   7 1.42   4 1.42   8 1.43
   6  0.053  0.298  0.500-  38 1.42  10 1.44   7 1.44
   7  0.109  0.197  0.500-   5 1.42   2 1.43   6 1.44
   8  0.276  0.293  0.500-  51 1.42   5 1.43  53 1.43  57 2.50
   9  0.057  0.498  0.498-  42 1.42  10 1.44  12 1.46
  10  0.110  0.396  0.499-  51 1.39   6 1.44   9 1.44
  11  0.059  0.698  0.500-  46 1.42  16 1.44  12 1.46
  12  0.117  0.597  0.498-  52 1.43  11 1.46   9 1.46
  13  0.280  0.700  0.500-  52 1.42  14 1.43  25 1.44
  14  0.224  0.799  0.501-  16 1.42  13 1.43  17 1.43
  15  0.057  0.898  0.501-  50 1.41   3 1.43  16 1.44
  16  0.113  0.798  0.501-  14 1.42  11 1.44  15 1.44
  17  0.278  0.899  0.501-  28 1.42   1 1.43  14 1.43
  18  0.556  1.000  0.501-  20 1.42  30 1.42  21 1.43
  19  0.389  0.099  0.501-   4 1.42  20 1.43  23 1.44
  20  0.445  0.999  0.501-  18 1.42  19 1.43  28 1.43
  21  0.611  0.099  0.501-  32 1.41  22 1.42  18 1.43
  22  0.556  0.198  0.504-  55 1.38  21 1.42  23 1.43
  23  0.443  0.199  0.502-  53 1.43  22 1.43  19 1.44
  24  0.559  0.607  0.495-  56 1.39  26 1.42  54 1.42  58 2.46
  25  0.393  0.700  0.500-  54 1.43  29 1.43  13 1.44
  26  0.614  0.705  0.499-  44 1.41  27 1.42  24 1.42
  27  0.558  0.803  0.500-  29 1.41  26 1.42  30 1.43
  28  0.390  0.900  0.501-  17 1.42  29 1.43  20 1.43
  29  0.446  0.800  0.501-  27 1.41  28 1.43  25 1.43
  30  0.612  0.901  0.500-  48 1.41  18 1.42  27 1.43
  31  0.889  0.999  0.500-  33 1.41  34 1.43  50 1.44
  32  0.722  0.100  0.501-  21 1.41  37 1.43  33 1.43
  33  0.778  0.000  0.500-  31 1.41  48 1.43  32 1.43
  34  0.943  0.099  0.500-   2 1.42  31 1.43  35 1.45
  35  0.886  0.200  0.501-  37 1.42  38 1.43  34 1.45
  36  0.715  0.300  0.503-  55 1.38  37 1.45  41 1.47
  37  0.774  0.200  0.502-  35 1.42  32 1.43  36 1.45
  38  0.941  0.299  0.501-   6 1.42  35 1.43  39 1.44
  39  0.885  0.400  0.501-  41 1.44  38 1.44  42 1.46
  40  0.721  0.504  0.497-  56 1.35  45 1.44  41 1.45
  41  0.772  0.401  0.501-  39 1.44  40 1.45  36 1.47
  42  0.945  0.499  0.499-   9 1.42  43 1.44  39 1.46
  43  0.891  0.600  0.499-  45 1.41  46 1.44  42 1.44
  44  0.725  0.703  0.498-  26 1.41  49 1.43  45 1.44
  45  0.780  0.602  0.498-  43 1.41  44 1.44  40 1.44
  46  0.947  0.699  0.500-  11 1.42  43 1.44  47 1.44
  47  0.892  0.799  0.500-  49 1.42  50 1.43  46 1.44
  48  0.724  0.901  0.500-  30 1.41  33 1.43  49 1.44
  49  0.780  0.801  0.499-  47 1.42  44 1.43  48 1.44
  50  0.946  0.899  0.500-  15 1.41  47 1.43  31 1.44
  51  0.220  0.391  0.497-  10 1.39   8 1.42  57 1.84
  52  0.229  0.599  0.497-  13 1.42  12 1.43  57 1.97
  53  0.389  0.299  0.502-  23 1.43   8 1.43  58 2.11  57 2.45
  54  0.447  0.600  0.496-  24 1.42  25 1.43  57 2.13  58 2.28
  55  0.606  0.296  0.508-  22 1.38  36 1.38  58 2.20
  56  0.615  0.512  0.493-  40 1.35  24 1.39  58 1.97
  57  0.330  0.482  0.481-  51 1.84  52 1.97  54 2.13  58 2.28  53 2.45   8 2.50
  58  0.492  0.427  0.519-  56 1.97  53 2.11  55 2.20  54 2.28  57 2.28  24 2.46

  LATTYP: Found a triclinic cell.
 ALAT       =    34.4351727823
 B/A-ratio  =     0.3649408144
 C/A-ratio  =     0.5786002622
 COS(alpha) =     0.0001658063
 COS(beta)  =     0.5790441199
 COS(gamma) =     0.7273807275

  Lattice vectors:

 A1 = (  12.5287256046, -25.1364024894, -19.9241920579)
 A2 = (  -0.0885655431, -12.5664879097,   0.0000000000)
 A3 = (   0.0174566909,  -0.0034266700, -19.9241920579)

Analysis of symmetry for initial positions (statically):
 Subroutine PRICEL returns:
 Original cell was already a primitive cell.

 Routine SETGRP: Setting up the symmetry group for a
 triclinic supercell.

 Subroutine GETGRP returns: Found  1 space group operations
 (whereof  1 operations were pure point group operations)
 out of a pool of  2 trial point group operations.

The static configuration has the point symmetry C_1 .

Analysis of symmetry for dynamics (positions and initial velocities):
 Subroutine PRICEL returns:
 Original cell was already a primitive cell.

[...]

The dynamic configuration has the point symmetry C_1 .

Analysis of structural, dynamic, and magnetic symmetry:
 Subroutine PRICEL returns:
 Original cell was already a primitive cell.

 Routine SETGRP: Setting up the symmetry group for a
 triclinic supercell.

 Subroutine GETGRP returns: Found  1 space group operations
 (whereof  1 operations were pure point group operations)
 out of a pool of  2 trial point group operations.

The magnetic configuration has the point symmetry C_1 .

 Subroutine INISYM returns: Found  1 space group operations
 (whereof  1 operations are pure point group operations),
 and found     1 'primitive' translations

 KPOINTS: KPOINTS created by Atomic Simulation Env

Automatic generation of k-mesh.
Space group operators:
 irot       det(A)        alpha          n_x          n_y          n_z        tau_x        tau_y        tau_z
    1     1.000000     0.000000     1.000000     0.000000     0.000000     0.000000     0.000000     0.000000

 Subroutine IBZKPT returns following result:

 Found      2 irreducible k-points:

 Following reciprocal coordinates:
            Coordinates               Weight
  0.250000  0.250000 -0.000000      2.000000
 -0.250000  0.250000  0.000000      2.000000

 Following cartesian coordinates:
            Coordinates               Weight
  0.019703  0.019755  0.000014      2.000000
 -0.019703  0.020033 -0.000021      2.000000

 Subroutine IBZKPT_HF returns following result:

 Found      4 k-points in 1st BZ
 the following      4 k-points will be used (e.g. in the exchange kernel)
 Following reciprocal coordinates:   # in IRBZ
  0.250000  0.250000 -0.000000    0.25000000   1 t-inv F
 -0.250000  0.250000  0.000000    0.25000000   2 t-inv F
 -0.250000 -0.250000  0.000000    0.25000000   1 t-inv T
  0.250000 -0.250000 -0.000000    0.25000000   2 t-inv T

 SYSTEM =  unknown system
 POSCAR =   C  N Fe  V

 Startparameter for this run:
   NWRITE =      2    write-flag & timer
   PREC   = accura    normal or accurate (medium, high low for compatibility)
   ISTART =      1    job   : 0-new  1-cont  2-samecut
   ICHARG =      0    charge: 1-file 2-atom 10-const
   ISPIN  =      2    spin polarized calculation?
   LNONCOLLINEAR =      F non collinear calculations
   LSORBIT =      F    spin-orbit coupling
   INIWAV =      1    electr: 0-lowe 1-rand  2-diag
   LASPH  =      T    aspherical Exc in radial PAW
   METAGGA=      F    non-selfconsistent MetaGGA calc.

 Electronic Relaxation 1
   ENCUT  =  500.0 eV  36.75 Ry    6.06 a.u.  23.13 22.91 36.33*2*pi/ulx,y,z
   ENINI  =  500.0     initial cutoff
   ENAUG  =  644.9 eV  augmentation charge cutoff
   NELM   =    250;   NELMIN=  2; NELMDL=  0     # of ELM steps
   EDIFF  = 0.1E-03   stopping-criterion for ELM
   LREAL  =      F    real-space projection
   NLSPLINE    = F    spline interpolate recip. space projectors
   LCOMPAT=      F    compatible to vasp.4.4
   GGA_COMPAT  = T    GGA compatible to vasp.4.4-vasp.4.6
   LMAXPAW     = -100 max onsite density
   LMAXMIX     =    2 max onsite mixed and CHGCAR
   VOSKOWN=      0    Vosko Wilk Nusair interpolation
   ROPT   =    0.00000   0.00000   0.00000   0.00000
 Ionic relaxation
   EDIFFG = -.3E-01   stopping-criterion for IOM
   NSW    =      0    number of steps for IOM
   NBLOCK =      1;   KBLOCK =      1    inner block; outer block
   IBRION =     -1    ionic relax: 0-MD 1-quasi-New 2-CG
   NFREE  =      1    steps in history (QN), initial steepest desc. (CG)
   ISIF   =      2    stress and relaxation
   IWAVPR =     10    prediction:  0-non 1-charg 2-wave 3-comb
   ISYM   =      3    0-nonsym 1-usesym 2-fastsym
   LCORR  =      T    Harris-Foulkes like correction to forces

   POTIM  = 0.5000    time-step for ionic-motion
   TEIN   =    0.0    initial temperature
   TEBEG  =    0.0;   TEEND  =   0.0 temperature during run
   SMASS  =  -3.00    Nose mass-parameter (am)
   estimated Nose-frequenzy (Omega)   =  0.10E-29 period in steps =****** mass=  -0.368E-26a.u.
   SCALEE = 1.0000    scale energy and forces
   NPACO  =    256;   APACO  = 16.0  distance and # of slots for P.C.
   PSTRESS=    0.0 pullay stress

  Mass of Ions in am
   POMASS =  12.01 14.00 55.85 50.94
  Ionic Valenz
   ZVAL   =   4.00  5.00  8.00  5.00
  Atomic Wigner-Seitz radii
  virtual crystal weights
   VCA    =   1.00  1.00  1.00  1.00
   NELECT =     239.0000    total number of electrons
   NUPDOWN=      -1.0000    fix difference up-down

 DOS related values:
   EMIN   =  10.00;   EMAX   =-10.00  energy-range for DOS
   EFERMI =   0.00
   ISMEAR =     0;   SIGMA  =   0.10  broadening in eV -4-tet -1-fermi 0-gaus

 Electronic relaxation 2 (details)
   IALGO  =     53    algorithm
   LDIAG  =      T    sub-space diagonalisation (order eigenvalues)
   LSUBROT=      F    optimize rotation matrix (better conditioning)
   TURBO    =      0    0=normal 1=particle mesh
   IRESTART =      0    0=no restart 2=restart with 2 vectors
   NREBOOT  =      0    no. of reboots
   NMIN     =      0    reboot dimension
   EREF     =   0.00    reference energy to select bands
   IMIX   =      4    mixing-type and parameters
     AMIX     =   0.40;   BMIX     =  1.00
     AMIX_MAG =   1.60;   BMIX_MAG =  1.00
     AMIN     =   0.10
     WC   =   100.;   INIMIX=   1;  MIXPRE=   1;  MAXMIX= -45

 Intra band minimization:
   WEIMIN = 0.0000     energy-eigenvalue tresh-hold
   EBREAK =  0.16E-06  absolut break condition
   DEPER  =   0.30     relativ break condition

[...]
   33        0.866   1.780   0.000   2.646
   34        0.864   1.767   0.000   2.630
   35        0.864   1.754   0.000   2.618
   36        0.850   1.682   0.000   2.533
   37        0.862   1.762   0.000   2.624
   38        0.863   1.766   0.000   2.629
   39        0.857   1.723   0.000   2.580
   40        0.862   1.722   0.000   2.584
   41        0.848   1.745   0.000   2.593
   42        0.858   1.750   0.000   2.608
   43        0.866   1.761   0.000   2.628
   44        0.870   1.770   0.000   2.641
   45        0.865   1.779   0.000   2.644
   46        0.862   1.759   0.000   2.621
   47        0.867   1.760   0.000   2.626
   48        0.867   1.769   0.000   2.636
   49        0.866   1.779   0.000   2.645
   50        0.865   1.772   0.000   2.637
   51        0.886   1.715   0.000   2.601
   52        0.868   1.640   0.000   2.508
   53        0.867   1.665   0.000   2.532
   54        0.857   1.681   0.000   2.539
   55        1.236   2.637   0.000   3.873
   56        1.241   2.720   0.000   3.961
   57        0.507   0.553   6.251   7.311
   58        0.466   0.631   3.492   4.589
tot         50.221 101.292   9.743 161.257

 magnetization (x)

[...]

  FORCE on cell =-STRESS in cart. coord.  units (eV):
  Direction    XX          YY          ZZ          XY          YZ          ZX
  Alpha Z    97.83520    97.83520    97.83520
  Ewald   45646.37984 45417.96894-53625.85534     1.87093    30.35263   -21.26760
  Hartree 44837.32541 44775.14389-44335.69280     4.68545    17.86968   -12.35598
  E(xc)    -688.87632  -688.83687  -702.24050    -0.13192     0.35777    -0.12239
  Local  -93014.44734-92759.17145 94956.95691   -10.45507   -46.09075    33.61544
  n-local  -145.41732  -144.35789  -132.29439     2.05439    -1.34715     0.58505
  augment    30.69894    35.79986    38.58111    -0.72796    -0.80053     0.11728
  Kinetic  3513.87641  3498.95958  3973.83145     5.95223    -2.13865     1.11631
  Fock     -289.57243  -294.74185  -271.39569     0.99007     1.01824    -0.80418
  Total     -12.19761   -61.40060    -0.27404     4.23812    -0.77876     0.88394
  in kB      -6.15154   -30.96576    -0.13821     2.13738    -0.39275     0.44579

 VOLUME and BASIS-vectors are now :
  energy-cutoff  :      500.00
  volume of cell :     3176.89
      direct lattice vectors                 reciprocal lattice vectors
    12.688400000  0.000000000  0.000000000     0.078812143 -0.000555449  0.000069147
     0.088565543 12.566487910  0.000000000     0.000000000  0.079576729 -0.000013686
    -0.017456691  0.003426670 19.924192058     0.000000000  0.000000000  0.050190241

  length of vectors
    12.688400000 12.566800000 19.924200000     0.078814131  0.079576730  0.050190241

 FORCES acting on ions:
    Electron-Ion                     Ewald-Force                    Non-Local-Force
   -.220E+01 -.498E+00 -.440E+01   0.228E+01 0.376E+00 0.441E+01   -.103E+00 0.723E-01 -.278E-01
   -.354E+01 0.288E+00 -.777E+00   0.360E+01 -.217E+00 0.753E+00   -.932E-01 -.833E-01 0.269E-01
   0.491E+01 -.148E+01 -.258E+01   -.482E+01 0.153E+01 0.258E+01   -.572E-01 -.114E-01 0.150E-02
   -.227E+00 -.173E+01 -.172E+01   0.277E+00 0.182E+01 0.171E+01   -.517E-01 -.216E-01 0.115E-01
   -.416E+01 -.365E+01 -.233E+00   0.429E+01 0.393E+01 0.312E+00   -.262E+00 -.359E+00 0.780E-02
   -.262E+01 -.371E+01 -.609E+01   0.278E+01 0.417E+01 0.623E+01   -.187E+00 -.382E+00 -.140E+00
   0.486E+01 -.552E+01 -.132E+01   -.468E+01 0.574E+01 0.128E+01   -.707E-01 -.220E+00 0.374E-01
   -.119E+02 0.603E+00 -.542E+01   0.123E+02 -.646E+00 0.549E+01   -.397E+00 0.491E-01 -.519E-01
   -.125E+02 -.591E+01 0.489E+01   0.132E+02 0.593E+01 -.520E+01   -.713E+00 -.987E-01 0.309E+00
   0.528E+01 -.119E+02 -.128E+01   -.472E+01 0.121E+02 0.135E+01   -.518E+00 -.242E+00 -.602E-01
   -.780E+01 0.957E+01 -.436E+01   0.822E+01 -.101E+02 0.440E+01   -.402E+00 0.520E+00 -.453E-01
   -.245E+01 0.121E+02 0.209E+01   0.380E+01 -.122E+02 -.209E+01   -.119E+01 0.282E+00 0.120E-01
   0.229E+01 0.747E+01 -.117E+02   -.262E+01 -.852E+01 0.115E+02   0.207E+00 0.898E+00 0.667E-01
   -.359E+01 0.393E+01 -.103E+02   0.375E+01 -.432E+01 0.104E+02   -.213E+00 0.320E+00 -.789E-01
   -.644E+01 0.344E+01 -.299E+01   0.649E+01 -.353E+01 0.300E+01   -.161E+00 0.110E+00 -.113E-01
   0.599E+01 0.403E+01 -.547E+01   -.581E+01 -.437E+01 0.540E+01   -.107E+00 0.250E+00 0.555E-01
   0.449E+01 0.328E+01 -.729E+01   -.453E+01 -.340E+01 0.733E+01   0.868E-01 0.132E+00 -.409E-01
   -.135E+01 -.377E+01 0.922E+00   0.101E+01 0.360E+01 -.954E+00   0.309E+00 0.141E+00 0.441E-01
   -.496E+01 -.907E+01 -.133E+01   0.520E+01 0.945E+01 0.127E+01   -.212E+00 -.337E+00 0.685E-01
   0.538E+01 -.178E+01 -.269E+01   -.562E+01 0.180E+01 0.274E+01   0.247E+00 -.306E-01 -.465E-01
   0.699E+01 0.149E+01 0.100E+01   -.717E+01 -.181E+01 -.110E+01   0.180E+00 0.300E+00 0.121E+00
   0.199E+02 0.332E+01 -.106E+02   -.221E+02 -.588E+01 0.105E+02   0.228E+01 0.262E+01 0.109E+00
   0.395E+01 -.172E+02 -.313E+01   -.496E+01 0.184E+02 0.289E+01   0.925E+00 -.115E+01 0.304E+00
   0.253E+02 -.912E+01 0.269E+02   -.286E+02 0.134E+02 -.278E+02   0.306E+01 -.394E+01 0.961E+00
   0.119E+01 0.984E+01 -.138E+02   -.104E+01 -.110E+02 0.143E+02   0.374E-01 0.919E+00 -.616E+00
   0.533E+01 -.222E+01 -.192E+01   -.553E+01 0.268E+01 0.209E+01   0.146E+00 -.421E+00 -.209E+00
   0.102E+01 -.203E+01 -.449E+01   -.150E+01 0.216E+01 0.451E+01   0.403E+00 -.182E+00 -.343E-01
   -.245E+01 0.752E+00 -.553E+01   0.231E+01 -.833E+00 0.549E+01   0.808E-01 0.857E-01 0.434E-01
   0.909E+01 0.398E+01 -.769E+01   -.947E+01 -.437E+01 0.768E+01   0.458E+00 0.390E+00 -.162E-01
   0.317E+01 -.117E+01 0.592E-02   -.318E+01 0.126E+01 -.398E-02   0.870E-01 -.325E-01 0.101E-01
   -.734E+01 0.109E+01 0.899E+00   0.742E+01 -.105E+01 -.896E+00   -.129E+00 0.145E-01 0.896E-03
   -.859E+01 -.777E+00 -.137E+01   0.871E+01 0.611E+00 0.148E+01   -.165E+00 0.172E+00 -.898E-01
   0.328E+01 -.248E+01 0.109E+01   -.311E+01 0.230E+01 -.110E+01   -.119E+00 0.159E+00 0.213E-01
   0.512E+01 -.566E+01 0.110E+00   -.498E+01 0.570E+01 -.119E+00   -.102E+00 -.652E-01 0.771E-02
   -.375E+01 -.230E+01 -.296E-01   0.402E+01 0.249E+01 -.358E-01   -.322E+00 -.175E+00 0.710E-01
   -.206E+02 -.208E+02 -.107E+02   0.235E+02 0.210E+02 0.105E+02   -.314E+01 -.264E+00 0.286E+00
   -.233E+00 -.929E+01 -.126E+01   0.666E+00 0.928E+01 0.122E+01   -.319E+00 -.422E-01 0.400E-01
   0.546E+01 -.619E+01 -.531E+01   -.516E+01 0.636E+01 0.536E+01   -.238E+00 -.104E+00 -.571E-01
   -.165E+01 -.352E+01 -.432E+01   0.175E+01 0.355E+01 0.430E+01   -.706E-01 -.455E-01 0.494E-02
   -.319E+02 0.237E+02 0.116E+02   0.359E+02 -.242E+02 -.111E+02   -.411E+01 0.475E+00 -.409E+00
   0.106E+02 0.561E+01 -.592E+01   -.103E+02 -.577E+01 0.601E+01   -.196E+00 0.224E+00 -.107E+00
   0.242E+01 0.601E+01 -.741E+00   -.183E+01 -.615E+01 0.711E+00   -.457E+00 0.828E-01 0.119E-01
   -.110E+02 0.425E+01 -.897E+00   0.114E+02 -.437E+01 0.924E+00   -.498E+00 0.137E+00 -.414E-01
   -.969E+01 0.110E+01 0.432E+01   0.982E+01 -.879E+00 -.437E+01   -.141E+00 -.171E+00 0.474E-01
   -.436E+01 0.458E+01 0.698E+01   0.510E+01 -.434E+01 -.700E+01   -.607E+00 -.217E+00 0.455E-01
   -.527E+00 0.325E+01 -.274E+01   0.937E+00 -.331E+01 0.276E+01   -.386E+00 0.784E-01 -.328E-01
   -.874E+01 0.404E+01 0.149E+00   0.890E+01 -.418E+01 -.145E+00   -.200E+00 0.102E+00 0.684E-02
   -.620E+01 0.596E+00 0.164E+01   0.611E+01 -.605E+00 -.164E+01   0.264E-02 0.296E-01 0.763E-02
   0.353E+00 -.191E+01 0.190E+01   -.153E+00 0.204E+01 -.188E+01   -.172E+00 -.166E+00 -.954E-02
   0.448E+01 -.824E+00 0.295E+00   -.423E+01 0.793E+00 -.302E+00   -.141E+00 0.185E-01 0.208E-01
   -.162E+01 -.308E+02 0.315E+00   0.357E+01 0.356E+02 -.991E+00   -.218E+01 -.516E+01 0.433E+00
   -.924E+01 0.382E+02 0.117E+01   0.118E+02 -.427E+02 -.147E+01   -.315E+01 0.473E+01 0.176E+00
   -.432E+02 -.563E+02 -.117E+02   0.470E+02 0.627E+02 0.121E+02   -.417E+01 -.644E+01 -.664E+00
   0.284E+02 0.499E+02 0.136E+02   -.330E+02 -.552E+02 -.144E+02   0.491E+01 0.573E+01 0.765E+00
   0.510E+02 -.885E+02 -.509E+02   -.637E+02 0.108E+03 0.531E+02   0.121E+02 -.187E+02 -.213E+01
   0.455E+02 0.826E+02 0.670E+02   -.558E+02 -.100E+03 -.715E+02   0.977E+01 0.165E+02 0.407E+01
   -.569E+02 0.669E+01 0.230E+03   0.502E+02 -.281E+00 -.226E+03   0.639E+01 -.544E+01 -.393E+01
   0.964E+01 0.214E+02 -.167E+03   -.789E+01 -.248E+02 0.164E+03   0.220E+00 0.224E+01 0.356E+01
   -.169E+02 0.706E+01 -.334E+01   -.995E-13 0.995E-13 -.284E-13   0.162E+02 -.677E+01 0.291E+01

 POSITION                                       TOTAL-FORCE (eV/Angst)
      2.90201     12.53915      9.98483        -0.032103     -0.045637     -0.016289
      0.68906      1.23464      9.97093        -0.044700     -0.012449      0.004168
      1.48409     12.54686      9.97757         0.046825      0.035351      0.001846
      3.51713      1.21642      9.97801        -0.001546      0.077654      0.005106
      2.80852      2.44820      9.96433        -0.141915     -0.092382      0.088295
      0.69266      3.74042      9.97028        -0.045605      0.066698     -0.010803
      1.39107      2.48038      9.96697         0.119129     -0.016854      0.000036
      3.52254      3.68504      9.95490         0.027339      0.031037      0.012377
      0.75631      6.25735      9.92747        -0.108165     -0.095331      0.019769
      1.42427      4.97937      9.93609         0.030496     -0.048535      0.007054
      0.80726      8.76794      9.96098        -0.016277      0.038715     -0.010254
      1.52648      7.50132      9.92702         0.108522      0.154079      0.013370
      3.60718      8.79655      9.96476        -0.109237     -0.109584     -0.045057
      2.90735     10.04262      9.98741        -0.072894     -0.052336      0.010379
      0.79190     11.29185      9.97466        -0.136056      0.026683     -0.006193
      1.49187     10.03217      9.97651         0.082309     -0.074409     -0.013443
      3.60287     11.29663      9.99097         0.053492      0.025143     -0.001355
      7.13492     12.56689      9.97613        -0.025536     -0.019081      0.014568
      4.93630      1.24026      9.98523         0.011782      0.023613      0.019788
      5.71977     12.55674      9.98458         0.032309     -0.009010      0.005451
      7.75045      1.24781      9.99028         0.015453      0.007592      0.033217
      7.06699      2.49398     10.03763         0.215515      0.196624      0.001640
      5.63367      2.50236     10.00237        -0.030591     -0.013982      0.084958
      7.14179      7.62712      9.86173        -0.058603      0.070597      0.025461
      5.04371      8.79657      9.96670         0.187677     -0.218138     -0.153627
      7.84591      8.86181      9.93669        -0.043933      0.010099     -0.049958
      7.13776     10.08807      9.96519        -0.063953     -0.073184     -0.015478
      5.01805     11.30690      9.98653        -0.068165      0.007287      0.005671
      5.72390     10.05953      9.97800         0.113271      0.023061     -0.025191
      7.84157     11.32978      9.96559         0.086357      0.052220      0.012831
     11.36462     12.56132      9.96583        -0.071840      0.063110      0.003801
      9.16192      1.25425      9.98586        -0.067191      0.018030      0.013603
      9.86439      0.00343      9.96770         0.058235     -0.007266      0.009886
     11.96053      1.25186      9.97024         0.047325     -0.038848     -0.000719
     11.25490      2.51416      9.97649        -0.076450      0.008622      0.009816
      9.08476      3.76636     10.02995        -0.457905     -0.071591      0.022352
      9.83304      2.52117      9.99216         0.105745     -0.061892     -0.001172
     11.96127      3.76094      9.97953         0.053178      0.057885     -0.006209
     11.25936      5.02241      9.97351         0.018157     -0.031124     -0.012474
      9.18382      6.34000      9.90692        -0.395125     -0.007064      0.001169
      9.82179      5.03510      9.98089         0.088260      0.081018     -0.029980
     12.02296      6.26849      9.95093         0.115371     -0.045349     -0.017209
     11.34995      7.54036      9.94811        -0.109911      0.021862     -0.017025
      9.25528      8.82981      9.93151        -0.036977      0.047474     -0.000311
      9.93868      7.56694      9.92308         0.105681      0.014230      0.032129
     12.07247      8.78395      9.95855         0.012743      0.020888     -0.011277
     11.37700     10.04811      9.95637        -0.067358     -0.027942      0.011565
      9.25600     11.32044      9.95853        -0.100205      0.025980      0.009466
      9.96170     10.06899      9.94829         0.028195     -0.056940      0.003367
     12.06849     11.30331      9.96378         0.117170     -0.015669      0.014835
      2.81226      4.91223      9.89598        -0.343338     -0.557632     -0.222637
      2.95461      7.53347      9.89925        -0.750930      0.450445     -0.116697
      4.94977      3.75597     10.00103        -0.558658     -0.347609     -0.267441
      5.72138      7.53536      9.88162         0.650345      0.727774      0.037585
      7.70397      3.71785     10.11266         0.574767     -0.673046     -0.036398
      7.84222      6.43095      9.82403         0.325814      0.554946     -0.029709
      4.22525      6.05568      9.58214        -0.780981      0.696677      0.235948
      6.26700      5.37350     10.33712         1.384684     -0.812509      0.345398
    total drift:                               -0.008146      0.001310     -0.007940

  FREE ENERGIE OF THE ION-ELECTRON SYSTEM (eV)
  free  energy   TOTEN  =      -608.47507309 eV

  energy  without entropy=     -608.47504245  energy(sigma->0) =     -608.47505777

 stress matrix after NEB project (eV)
    -12.19761      4.23819      0.88394
      4.23812    -61.40060     -0.77354
      0.88398     -0.77876     -0.27404
  FORCES: max atom, RMS     1.642200    0.388287
  FORCE total and by dimension    2.957106    1.384684
  Stress total and by dimension   62.909313   61.400598
 writing wavefunctions

 total charge

[...]

 magnetization (x)

# of ion       s       p       d       tot
    1       -0.001  -0.011   0.000  -0.012
    2       -0.001  -0.016   0.000  -0.017
    3        0.001   0.010   0.000   0.011
    4        0.000   0.005   0.000   0.005
    5       -0.001  -0.013   0.000  -0.014
    6       -0.003  -0.025   0.000  -0.027
    7        0.002   0.018   0.000   0.019
    8        0.003   0.027   0.000   0.030
    9       -0.003  -0.049   0.000  -0.052
   10        0.003   0.031   0.000   0.034
   11       -0.002  -0.016   0.000  -0.018
   12        0.002   0.026   0.000   0.028
   13        0.001   0.016   0.000   0.018
   14       -0.002  -0.019   0.000  -0.021
   15       -0.001  -0.011   0.000  -0.012
   16        0.001   0.012   0.000   0.014
   17        0.000   0.003   0.000   0.004
   18       -0.002  -0.023   0.000  -0.025
   19       -0.001  -0.014   0.000  -0.015
   20        0.001   0.009   0.000   0.010
   21        0.002   0.014   0.000   0.015
   22       -0.003  -0.044   0.000  -0.048
   23       -0.001   0.004   0.000   0.003
   24       -0.003  -0.009   0.000  -0.012
   25       -0.001  -0.018   0.000  -0.019
   26       -0.000   0.005   0.000   0.005
   27       -0.001  -0.008   0.000  -0.009
   28       -0.001  -0.013   0.000  -0.013
   29        0.001   0.005   0.000   0.006
   30        0.001   0.010   0.000   0.011
   31       -0.001  -0.009   0.000  -0.009
   32       -0.001  -0.016   0.000  -0.017
   33        0.001   0.009   0.000   0.010
   34        0.001   0.011   0.000   0.012
   35       -0.001  -0.011   0.000  -0.012
   36       -0.000  -0.003   0.000  -0.003
   37        0.001   0.010   0.000   0.011
   38        0.001   0.010   0.000   0.011
   39       -0.002  -0.029   0.000  -0.031
   40       -0.001  -0.018   0.000  -0.019
   41        0.000  -0.005   0.000  -0.005
   42        0.002   0.013   0.000   0.014
   43       -0.001  -0.014   0.000  -0.016
   44       -0.001  -0.014   0.000  -0.015
   45        0.001   0.011   0.000   0.013
   46        0.001   0.011   0.000   0.012
   47       -0.001  -0.013   0.000  -0.014
   48       -0.001  -0.018   0.000  -0.019
   49        0.001   0.008   0.000   0.009
   50        0.001   0.011   0.000   0.012
   51       -0.021  -0.137   0.000  -0.158
   52       -0.024  -0.122   0.000  -0.146
   53        0.005  -0.029   0.000  -0.024
   54        0.004   0.013   0.000   0.017
   55        0.004   0.009   0.000   0.013
   56        0.004   0.008   0.000   0.012
   57        0.025  -0.035   2.550   2.540
   58       -0.067  -0.045  -2.471  -2.583
tot         -0.079  -0.489   0.079  -0.489