 vasp.5.4.4.18Apr17-6-g9f103f2a35 (build Feb 25 2019 10:51:38) complex

 executed on             LinuxIFC date 2021.06.16  00:50:12

 INCAR:
 POTCAR:    PAW_PBE C 08Apr2002
 POTCAR:    PAW_PBE N 08Apr2002
 POTCAR:    PAW_PBE Fe 06Sep2000
 POTCAR:    PAW_PBE Cr 06Sep2000

 POTCAR:    PAW_PBE C 08Apr2002
   VRHFIN =C: s2p2

   TITEL  = PAW_PBE C 08Apr2002
   POMASS =   12.011; ZVAL   =    4.000    mass and valenz
   ENMAX  =  400.000; ENMIN  =  300.000 eV

 POTCAR:    PAW_PBE N 08Apr2002
   VRHFIN =N: s2p3

   TITEL  = PAW_PBE N 08Apr2002
   POMASS =   14.001; ZVAL   =    5.000    mass and valenz
   ENMAX  =  400.000; ENMIN  =  300.000 eV

 POTCAR:    PAW_PBE Fe 06Sep2000
   VRHFIN =Fe:  d7 s1

   TITEL  = PAW_PBE Fe 06Sep2000
   POMASS =   55.847; ZVAL   =    8.000    mass and valenz
   ENMAX  =  267.882; ENMIN  =  200.911 eV

 POTCAR:    PAW_PBE Cr 06Sep2000
   VRHFIN =Cr : d5 s1

   TITEL  = PAW_PBE Cr 06Sep2000
   POMASS =   51.996; ZVAL   =    6.000    mass and valenz
   ENMAX  =  227.080; ENMIN  =  170.310 eV

  PAW_PBE C 08Apr2002                   :
  PAW_PBE N 08Apr2002                   :
  PAW_PBE Fe 06Sep2000                  :
  PAW_PBE Cr 06Sep2000                  :

 POSCAR:  C  N Fe Cr
  positions in cartesian coordinates
 exchange correlation table for  LEXCH =        8
   RHO(1)=    0.500       N(1)  =     2000
   RHO(2)=  100.500       N(2)  =     4000

 VTST: version 3.2, (02/03/18)

 CHAIN: initializing optimizer

 OPT: Using VASP Conjugate-Gradient optimizer
 CHAIN: Read ICHAIN            0

 POSCAR:  C  N Fe Cr
  positions in cartesian coordinates

 ion  position               nearest neighbor table
   1  0.222  0.003  0.499-   3 1.43  19 1.43   4 1.44
   2  0.058  0.103  0.497-  36 1.43   3 1.43   7 1.44
   3  0.111  0.002  0.498-   1 1.43   2 1.43  17 1.43
   4  0.278  0.104  0.502-  21 1.42   1 1.44   5 1.44
   5  0.225  0.206  0.504-   7 1.44   4 1.44   8 1.45
   6  0.058  0.303  0.499-  40 1.43  11 1.43   7 1.43
   7  0.114  0.204  0.500-   6 1.43   5 1.44   2 1.44
   8  0.282  0.307  0.510-  25 1.45   5 1.45   9 1.48
   9  0.224  0.408  0.509-  53 1.39  11 1.44   8 1.48
  10  0.054  0.504  0.500-  14 1.43  44 1.44  11 1.45
  11  0.112  0.404  0.502-   6 1.43   9 1.44  10 1.45
  12  0.221  0.604  0.505-  53 1.40  14 1.43  15 1.44
  13  0.053  0.702  0.497-  14 1.43  18 1.43  48 1.44
  14  0.109  0.604  0.500-  10 1.43  13 1.43  12 1.43
  15  0.279  0.704  0.500-  56 1.40  16 1.44  12 1.44
  16  0.221  0.802  0.498-  18 1.43  15 1.44  19 1.44
  17  0.055  0.902  0.496-  52 1.43   3 1.43  18 1.44
  18  0.110  0.802  0.497-  13 1.43  16 1.43  17 1.44
  19  0.276  0.903  0.498-   1 1.43  30 1.43  16 1.44
  20  0.555  0.001  0.497-  23 1.42  32 1.42  22 1.42
  21  0.389  0.101  0.501-  26 1.42   4 1.42  22 1.43
  22  0.444  0.002  0.498-  30 1.42  20 1.42  21 1.43
  23  0.613  0.099  0.498-  24 1.41  20 1.42  34 1.43
  24  0.558  0.196  0.502-  27 1.41  23 1.41  26 1.43
  25  0.395  0.300  0.514-  54 1.38  26 1.43   8 1.45
  26  0.447  0.199  0.505-  21 1.42  24 1.43  25 1.43
  27  0.616  0.293  0.502-  28 1.39  24 1.41  38 1.42
  28  0.563  0.389  0.511-  55 1.37  54 1.38  27 1.39
  29  0.554  0.804  0.497-  57 1.39  32 1.41  31 1.44
  30  0.388  0.903  0.498-  31 1.42  22 1.42  19 1.43
  31  0.442  0.804  0.497-  56 1.39  30 1.42  29 1.44
  32  0.610  0.902  0.496-  29 1.41  20 1.42  50 1.43
  33  0.890  0.001  0.495-  35 1.43  52 1.43  36 1.44
  34  0.724  0.099  0.495-  23 1.43  35 1.43  39 1.43
  35  0.778  1.000  0.495-  50 1.43  34 1.43  33 1.43
  36  0.946  0.101  0.495-   2 1.43  37 1.43  33 1.44
  37  0.892  0.201  0.495-  39 1.42  36 1.43  40 1.43
  38  0.726  0.297  0.498-  27 1.42  39 1.42  43 1.43
  39  0.781  0.199  0.495-  38 1.42  37 1.42  34 1.43
  40  0.946  0.302  0.497-  37 1.43   6 1.43  41 1.44
  41  0.889  0.401  0.498-  43 1.43  44 1.43  40 1.44
  42  0.718  0.496  0.501-  55 1.38  43 1.44  47 1.45
  43  0.778  0.399  0.499-  41 1.43  38 1.43  42 1.44
  44  0.942  0.502  0.498-  41 1.43  10 1.44  45 1.45
  45  0.883  0.601  0.498-  48 1.43  44 1.45  47 1.46
  46  0.714  0.701  0.498-  57 1.39  51 1.44  47 1.46
  47  0.770  0.600  0.499-  42 1.45  45 1.46  46 1.46
  48  0.941  0.700  0.497-  49 1.43  45 1.43  13 1.44
  49  0.886  0.800  0.496-  48 1.43  51 1.43  52 1.44
  50  0.721  0.901  0.495-  35 1.43  32 1.43  51 1.44
  51  0.774  0.800  0.496-  49 1.43  50 1.44  46 1.44
  52  0.943  0.901  0.495-  33 1.43  17 1.43  49 1.44
  53  0.272  0.508  0.516-   9 1.39  12 1.40  58 1.85
  54  0.458  0.390  0.526-  28 1.38  25 1.38  58 1.84
  55  0.611  0.487  0.507-  28 1.37  42 1.38  59 1.99
  56  0.388  0.706  0.498-  31 1.39  15 1.40  59 2.00
  57  0.606  0.707  0.497-  46 1.39  29 1.39  59 1.97
  58  0.402  0.516  0.558-  54 1.84  53 1.85  59 1.96
  59  0.498  0.593  0.499-  58 1.96  57 1.97  55 1.99  56 2.00

  LATTYP: Found a triclinic cell.
 ALAT       =    26.7104922312
 B/A-ratio  =     0.4801671152
 C/A-ratio  =     0.4660902499
 COS(alpha) =     0.0109447412
 COS(beta)  =     0.4549354038
 COS(gamma) =     0.4929166768

  Lattice vectors:

 A1 = (  13.1660470656, -12.0081688254, -19.8974742457)
 A2 = (  12.8255000000,   0.0000000000,   0.0000000000)
 A3 = (   0.1362565558, -12.4487543313,   0.0000000000)

Analysis of symmetry for initial positions (statically):
 Subroutine PRICEL returns:
 Original cell was already a primitive cell.

 Routine SETGRP: Setting up the symmetry group for a
 triclinic supercell.

 Subroutine GETGRP returns: Found  1 space group operations
 (whereof  1 operations were pure point group operations)
 out of a pool of  2 trial point group operations.

The static configuration has the point symmetry C_1 .

Analysis of symmetry for dynamics (positions and initial velocities):
 Subroutine PRICEL returns:
 Original cell was already a primitive cell.

[...]

The dynamic configuration has the point symmetry C_1 .

Analysis of structural, dynamic, and magnetic symmetry:
 Subroutine PRICEL returns:
 Original cell was already a primitive cell.

 Routine SETGRP: Setting up the symmetry group for a
 triclinic supercell.

 Subroutine GETGRP returns: Found  1 space group operations
 (whereof  1 operations were pure point group operations)
 out of a pool of  2 trial point group operations.

The magnetic configuration has the point symmetry C_1 .

 Subroutine INISYM returns: Found  1 space group operations
 (whereof  1 operations are pure point group operations),
 and found     1 'primitive' translations

 KPOINTS: KPOINTS created by Atomic Simulation Env

Automatic generation of k-mesh.
Space group operators:
 irot       det(A)        alpha          n_x          n_y          n_z        tau_x        tau_y        tau_z
    1     1.000000     0.000000     1.000000     0.000000     0.000000     0.000000     0.000000     0.000000

 Subroutine IBZKPT returns following result:

 Found      2 irreducible k-points:

 Following reciprocal coordinates:
            Coordinates               Weight
  0.250000  0.250000  0.000000      2.000000
 -0.250000  0.250000  0.000000      2.000000

 Following cartesian coordinates:
            Coordinates               Weight
  0.019492  0.020296  0.000650      2.000000
 -0.019492  0.019869  0.000240      2.000000

 Subroutine IBZKPT_HF returns following result:

 Found      4 k-points in 1st BZ
 the following      4 k-points will be used (e.g. in the exchange kernel)
 Following reciprocal coordinates:   # in IRBZ
  0.250000  0.250000  0.000000    0.25000000   1 t-inv F
 -0.250000  0.250000  0.000000    0.25000000   2 t-inv F
 -0.250000 -0.250000 -0.000000    0.25000000   1 t-inv T
  0.250000 -0.250000  0.000000    0.25000000   2 t-inv T

 SYSTEM =  unknown system
 POSCAR =   C  N Fe Cr

 Startparameter for this run:
   NWRITE =      2    write-flag & timer
   PREC   = accura    normal or accurate (medium, high low for compatibility)
   ISTART =      1    job   : 0-new  1-cont  2-samecut
   ICHARG =      0    charge: 1-file 2-atom 10-const
   ISPIN  =      2    spin polarized calculation?
   LNONCOLLINEAR =      F non collinear calculations
   LSORBIT =      F    spin-orbit coupling
   INIWAV =      1    electr: 0-lowe 1-rand  2-diag
   LASPH  =      T    aspherical Exc in radial PAW
   METAGGA=      F    non-selfconsistent MetaGGA calc.

 Electronic Relaxation 1
   ENCUT  =  500.0 eV  36.75 Ry    6.06 a.u.  23.38 22.70 36.29*2*pi/ulx,y,z
   ENINI  =  500.0     initial cutoff
   ENAUG  =  644.9 eV  augmentation charge cutoff
   NELM   =    250;   NELMIN=  2; NELMDL=  0     # of ELM steps
   EDIFF  = 0.1E-03   stopping-criterion for ELM
   LREAL  =      F    real-space projection
   NLSPLINE    = F    spline interpolate recip. space projectors
   LCOMPAT=      F    compatible to vasp.4.4
   GGA_COMPAT  = T    GGA compatible to vasp.4.4-vasp.4.6
   LMAXPAW     = -100 max onsite density
   LMAXMIX     =    2 max onsite mixed and CHGCAR
   VOSKOWN=      0    Vosko Wilk Nusair interpolation
   ROPT   =    0.00000   0.00000   0.00000   0.00000
 Ionic relaxation
   EDIFFG = -.3E-01   stopping-criterion for IOM
   NSW    =      0    number of steps for IOM
   NBLOCK =      1;   KBLOCK =      1    inner block; outer block
   IBRION =     -1    ionic relax: 0-MD 1-quasi-New 2-CG
   NFREE  =      1    steps in history (QN), initial steepest desc. (CG)
   ISIF   =      2    stress and relaxation
   IWAVPR =     10    prediction:  0-non 1-charg 2-wave 3-comb
   ISYM   =      3    0-nonsym 1-usesym 2-fastsym
   LCORR  =      T    Harris-Foulkes like correction to forces

   POTIM  = 0.5000    time-step for ionic-motion
   TEIN   =    0.0    initial temperature
   TEBEG  =    0.0;   TEEND  =   0.0 temperature during run
   SMASS  =  -3.00    Nose mass-parameter (am)
   estimated Nose-frequenzy (Omega)   =  0.10E-29 period in steps =****** mass=  -0.376E-26a.u.
   SCALEE = 1.0000    scale energy and forces
   NPACO  =    256;   APACO  = 16.0  distance and # of slots for P.C.
   PSTRESS=    0.0 pullay stress

  Mass of Ions in am
   POMASS =  12.01 14.00 55.85 52.00
  Ionic Valenz
   ZVAL   =   4.00  5.00  8.00  6.00
  Atomic Wigner-Seitz radii
  virtual crystal weights
   VCA    =   1.00  1.00  1.00  1.00
   NELECT =     247.0000    total number of electrons
   NUPDOWN=      -1.0000    fix difference up-down

 DOS related values:
   EMIN   =  10.00;   EMAX   =-10.00  energy-range for DOS
   EFERMI =   0.00
   ISMEAR =     0;   SIGMA  =   0.10  broadening in eV -4-tet -1-fermi 0-gaus

 Electronic relaxation 2 (details)
   IALGO  =     53    algorithm
   LDIAG  =      T    sub-space diagonalisation (order eigenvalues)
   LSUBROT=      F    optimize rotation matrix (better conditioning)
   TURBO    =      0    0=normal 1=particle mesh
   IRESTART =      0    0=no restart 2=restart with 2 vectors
   NREBOOT  =      0    no. of reboots
   NMIN     =      0    reboot dimension
   EREF     =   0.00    reference energy to select bands
   IMIX   =      4    mixing-type and parameters
     AMIX     =   0.40;   BMIX     =  1.00
     AMIX_MAG =   1.60;   BMIX_MAG =  1.00
     AMIN     =   0.10
     WC   =   100.;   INIMIX=   1;  MIXPRE=   1;  MAXMIX= -45

 Intra band minimization:
[...]
   39        0.868   1.783   0.000   2.650
   40        0.861   1.760   0.000   2.621
   41        0.866   1.755   0.000   2.621
   42        0.855   1.704   0.000   2.559
   43        0.863   1.777   0.000   2.640
   44        0.859   1.758   0.000   2.618
   45        0.856   1.728   0.000   2.584
   46        0.850   1.690   0.000   2.540
   47        0.846   1.740   0.000   2.586
   48        0.860   1.761   0.000   2.621
   49        0.863   1.749   0.000   2.611
   50        0.866   1.759   0.000   2.625
   51        0.861   1.763   0.000   2.623
   52        0.862   1.759   0.000   2.621
   53        1.224   2.673   0.000   3.898
   54        1.227   2.705   0.000   3.932
   55        1.233   2.702   0.000   3.935
   56        1.219   2.677   0.000   3.896
   57        1.228   2.677   0.000   3.904
   58        0.474   0.434   6.663   7.571
   59        0.476   0.641   4.523   5.640
tot         51.902 105.886  11.186 168.975

 magnetization (x)

[...]

  FORCE on cell =-STRESS in cart. coord.  units (eV):
  Direction    XX          YY          ZZ          XY          YZ          ZX
  Alpha Z   103.47936   103.47936   103.47936
  Ewald   48045.29072 47951.81883-56360.33389    34.71454    54.91322   -50.24325
  Hartree 47383.97879 47349.75198-46717.50947    -5.50060    16.49787   -26.22570
  E(xc)    -719.32332  -719.07346  -733.28542    -0.09070     0.48964     0.44517
  Local  -98076.79433-97957.94899 99921.18963   -15.81938   -67.75412    72.31517
  n-local  -176.66390  -178.41605  -176.78295     1.42928    -0.45489     0.54221
  augment    42.82119    42.22725    46.85262    -1.29395    -0.07180     0.77848
  Kinetic  3670.52231  3681.56148  4209.72578   -13.22136    -4.44411     1.04244
  Fock     -316.49488  -316.55843  -292.21187     0.01764    -0.30335    -0.29882
  Total     -43.18406   -43.15803     1.12379     0.23549    -1.12753    -1.64429
  in kB     -21.77890   -21.76577     0.56676     0.11876    -0.56865    -0.82926

 VOLUME and BASIS-vectors are now :
  energy-cutoff  :      500.00
  volume of cell :     3176.86
      direct lattice vectors                 reciprocal lattice vectors
    12.825500000  0.000000000  0.000000000     0.077969670  0.000853409  0.000819424
    -0.136256556 12.448754331  0.000000000     0.000000000  0.080329322  0.001778715
    -0.204290510 -0.440585506 19.897474246     0.000000000  0.000000000  0.050257635

  length of vectors
    12.825500000 12.449500000 19.903400000     0.077978646  0.080349013  0.050257635

 FORCES acting on ions:
    Electron-Ion                     Ewald-Force                    Non-Local-Force
   0.457E+01 -.455E+01 0.745E+01   -.462E+01 0.443E+01 -.748E+01   0.152E+00 -.702E-01 0.259E-01
   -.178E+01 -.141E+01 0.120E+02   0.193E+01 0.132E+01 -.120E+02   -.154E+00 0.376E-01 0.298E-01
   0.596E+01 -.467E+00 0.894E+01   -.597E+01 0.358E+00 -.889E+01   -.649E-01 0.780E-01 -.481E-01
   0.133E+02 0.841E+00 0.658E+00   -.135E+02 -.965E+00 -.566E+00   0.310E+00 0.172E+00 -.955E-01
   0.607E+01 0.362E+01 -.429E+01   -.618E+01 -.377E+01 0.425E+01   0.977E-01 0.113E+00 0.338E-01
   0.239E+01 0.457E+01 0.148E+02   -.227E+01 -.487E+01 -.149E+02   -.592E-01 0.328E+00 0.564E-01
   0.388E+01 0.465E+01 0.775E+01   -.391E+01 -.475E+01 -.773E+01   0.109E-01 0.106E+00 -.131E-01
   0.192E+02 0.110E+02 -.212E+02   -.195E+02 -.113E+02 0.211E+02   0.344E+00 0.197E+00 0.639E-01
   0.224E+02 0.471E+02 -.329E+01   -.243E+02 -.500E+02 0.264E+01   0.180E+01 0.333E+01 0.710E+00
   0.135E+02 0.441E+01 0.918E+01   -.138E+02 -.423E+01 -.906E+01   0.279E+00 -.952E-01 -.114E+00
   0.151E+02 0.845E+01 0.146E+02   -.156E+02 -.881E+01 -.147E+02   0.511E+00 0.197E+00 0.149E+00
   0.261E+02 -.309E+02 0.141E+02   -.280E+02 0.344E+02 -.149E+02   0.187E+01 -.326E+01 0.854E+00
   0.106E+02 -.424E+01 0.172E+02   -.108E+02 0.448E+01 -.172E+02   0.277E+00 -.221E+00 0.593E-01
   0.178E+02 -.709E+01 0.141E+02   -.181E+02 0.764E+01 -.142E+02   0.296E+00 -.460E+00 0.590E-01
   0.314E+02 -.740E+01 0.228E+02   -.346E+02 0.743E+01 -.231E+02   0.294E+01 -.909E-01 0.228E+00
   0.140E+02 -.933E+01 0.170E+02   -.144E+02 0.932E+01 -.170E+02   0.329E+00 -.149E+00 0.743E-01
   0.241E+01 -.172E+01 0.127E+02   -.232E+01 0.181E+01 -.127E+02   -.770E-01 -.150E-01 0.466E-01
   0.783E+01 -.556E+01 0.126E+02   -.812E+01 0.538E+01 -.125E+02   0.261E+00 0.107E+00 -.986E-01
   0.107E+02 -.728E+01 0.134E+02   -.111E+02 0.775E+01 -.134E+02   0.224E+00 -.256E+00 0.733E-01
   -.993E+00 0.416E+00 0.150E+02   0.730E+00 -.432E+00 -.149E+02   0.235E+00 -.324E-01 -.144E-01
   0.684E+01 0.719E+01 0.886E+01   -.737E+01 -.763E+01 -.895E+01   0.443E+00 0.435E+00 0.962E-01
   0.379E+01 -.397E+01 0.130E+02   -.358E+01 0.392E+01 -.130E+02   -.156E+00 0.489E-02 0.261E-01
   -.844E+01 0.658E+01 0.164E+02   0.863E+01 -.707E+01 -.165E+02   -.144E+00 0.531E+00 0.869E-01
   -.700E+00 0.179E+02 0.537E+01   0.622E+00 -.187E+02 -.508E+01   0.106E+00 0.766E+00 -.278E+00
   0.389E+02 0.401E+02 -.225E+02   -.415E+02 -.435E+02 0.215E+02   0.263E+01 0.336E+01 0.105E+01
   0.759E+01 0.172E+02 0.384E+01   -.785E+01 -.179E+02 -.400E+01   0.198E+00 0.663E+00 0.201E+00
   -.204E+02 0.230E+02 0.169E+02   0.212E+02 -.243E+02 -.172E+02   -.685E+00 0.120E+01 0.380E+00
   -.295E+02 0.268E+02 -.188E+02   0.322E+02 -.304E+02 0.181E+02   -.261E+01 0.361E+01 0.807E+00
   0.644E+01 -.229E+02 0.189E+02   -.805E+01 0.260E+02 -.189E+02   0.150E+01 -.306E+01 -.750E-02
   0.646E+01 -.125E+02 0.131E+02   -.643E+01 0.127E+02 -.131E+02   0.104E+00 -.343E+00 -.439E-01
   -.114E+02 -.285E+02 0.211E+02   0.128E+02 0.315E+02 -.211E+02   -.126E+01 -.288E+01 0.100E+00
   -.926E+01 -.106E+02 0.163E+02   0.910E+01 0.111E+02 -.163E+02   0.113E+00 -.332E+00 0.365E-01
   -.512E+01 -.543E+00 0.186E+02   0.527E+01 0.486E+00 -.186E+02   -.113E+00 0.328E-01 0.194E-01
   -.817E+01 0.366E+01 0.212E+02   0.823E+01 -.379E+01 -.212E+02   -.115E+00 0.151E+00 -.194E-02
   -.753E+01 0.140E+01 0.199E+02   0.769E+01 -.143E+01 -.200E+02   -.179E+00 -.212E-01 0.436E-01
   -.111E+01 0.290E+01 0.188E+02   0.129E+01 -.306E+01 -.188E+02   -.154E+00 0.129E+00 0.400E-01
   -.802E+01 0.197E+01 0.221E+02   0.828E+01 -.203E+01 -.220E+02   -.265E+00 0.826E-01 0.167E-01
   -.192E+02 0.550E+01 0.249E+02   0.199E+02 -.564E+01 -.252E+02   -.731E+00 0.141E+00 0.240E+00
   -.988E+01 0.686E+01 0.254E+02   0.101E+02 -.717E+01 -.255E+02   -.263E+00 0.321E+00 0.623E-01
   -.202E+01 -.308E+00 0.191E+02   0.214E+01 0.226E+00 -.191E+02   -.158E+00 0.436E-01 0.437E-01
   -.803E+01 0.104E+01 0.149E+02   0.851E+01 -.856E+00 -.149E+02   -.401E+00 -.145E+00 0.175E-01
   -.427E+02 -.208E+02 0.736E+01   0.469E+02 0.215E+02 -.766E+01   -.413E+01 -.721E+00 0.294E+00
   -.182E+02 -.427E+01 0.134E+02   0.187E+02 0.424E+01 -.133E+02   -.566E+00 0.406E-01 -.800E-02
   0.200E+01 -.573E+01 0.107E+02   -.215E+01 0.603E+01 -.107E+02   0.128E+00 -.341E+00 -.167E-01
   0.327E+01 0.202E-01 0.120E+02   -.324E+01 0.275E+00 -.120E+02   0.329E-01 -.165E+00 0.290E-01
   -.357E+02 0.127E+02 0.964E+01   0.390E+02 -.127E+02 -.954E+01   -.356E+01 0.211E+00 -.161E+00
   -.766E+01 -.715E+01 0.104E+02   0.787E+01 0.739E+01 -.105E+02   -.177E+00 -.317E+00 0.300E-01
   0.130E+01 -.447E+00 0.149E+02   -.126E+01 0.275E+00 -.149E+02   -.113E+00 0.107E+00 0.731E-02
   -.334E+01 -.179E+01 0.142E+02   0.357E+01 0.158E+01 -.142E+02   -.267E+00 0.180E+00 0.251E-01
   -.112E+02 -.215E+01 0.157E+02   0.114E+02 0.235E+01 -.157E+02   -.232E+00 -.119E+00 0.133E-01
   -.128E+02 0.727E+00 0.125E+02   0.133E+02 -.697E+00 -.125E+02   -.341E+00 -.539E-01 0.322E-01
   0.289E+00 0.239E+01 0.151E+02   -.206E+00 -.241E+01 -.151E+02   -.769E-01 0.563E-01 0.316E-02
   0.110E+02 0.411E+00 -.338E+02   0.584E+01 0.449E+00 0.363E+02   -.161E+02 -.117E+01 -.277E+01
   0.150E+02 0.202E+02 -.122E+03   -.224E+02 -.744E+01 0.128E+03   0.735E+01 -.122E+02 -.667E+01
   -.144E+02 -.732E+02 -.880E+01   0.436E+01 0.914E+02 0.942E+01   0.953E+01 -.175E+02 -.481E+00
   -.134E+02 0.336E+02 0.513E+02   0.225E+02 -.501E+02 -.531E+02   -.876E+01 0.154E+02 0.192E+01
   0.188E+01 0.483E+02 0.292E+02   -.116E+02 -.654E+02 -.295E+02   0.959E+01 0.162E+02 0.288E+00
   0.663E+01 -.759E+02 -.646E+03   -.149E+02 0.658E+02 0.645E+03   0.567E+01 0.915E+01 0.418E+01
   -.301E+02 -.249E+02 0.130E+03   0.356E+02 0.299E+02 -.133E+03   -.325E+01 -.325E+01 0.860E-01
   -.259E+01 -.107E+02 -.124E+01   0.369E-12 0.711E-13 0.398E-12   0.219E+01 0.103E+02 0.180E+01

 POSITION                                       TOTAL-FORCE (eV/Angst)
      2.74728     -0.18355      9.92670         0.095933     -0.197883     -0.002955
      0.62340      1.05754      9.89520        -0.022141     -0.055945      0.006488
      1.32102     -0.19327      9.90085        -0.080621     -0.025059     -0.001157
      3.45260      1.07152      9.98133         0.085515      0.054298     -0.009488
      2.76039      2.33766     10.02870        -0.012571     -0.041442     -0.005117
      0.59823      3.55118      9.92766         0.057172      0.041833      0.013985
      1.32638      2.31535      9.94741        -0.020208      0.015165      0.003243
      3.47647      3.59501     10.15566         0.091117     -0.136504     -0.035164
      2.70884      4.85502     10.13033         0.043539      0.613790      0.094223
      0.52698      6.04758      9.95325         0.035570      0.082730      0.000261
      1.27891      4.81165      9.98223        -0.024150     -0.154558      0.023943
      2.64801      7.30256     10.04089         0.008347      0.016863      0.044623
      0.48003      8.52040      9.89647         0.062377      0.007812      0.021944
      1.21947      7.29809      9.95366        -0.062760      0.062997      0.037914
      3.37991      8.54408      9.94798        -0.115328     -0.055338     -0.002633
      2.62790      9.76719      9.90690         0.003381     -0.170633      0.015560
      0.48033     11.00624      9.87852         0.000931      0.073316      0.012789
      1.19408      9.76044      9.89510        -0.015830     -0.071412     -0.002532
      3.32074     11.02724      9.90712        -0.100948      0.199040      0.013082
      7.01865     -0.20820      9.89082        -0.013355     -0.047941      0.013154
      4.87323      1.04141      9.97049        -0.067349      0.018504      0.015154
      5.59573     -0.19220      9.91552         0.052544     -0.051787     -0.007544
      7.74254      1.00846      9.89950         0.026224      0.062313      0.001880
      7.02443      2.22179      9.98715         0.041030      0.037469     -0.002688
      4.92328      3.50776     10.21899         0.162592      0.138696      0.023887
      5.59814      2.26022     10.04385        -0.050115      0.007117      0.054343
      7.75685      3.42623      9.99343         0.054263      0.036645      0.074793
      7.06236      4.61711     10.17556        -0.106785      0.158646      0.105111
      6.89478      9.79119      9.88366        -0.020103     -0.121230     -0.007780
      4.75109     11.02361      9.90578         0.143384     -0.089948     -0.013420
      5.45492      9.79311      9.89656         0.074166     -0.026129      0.049671
      7.59778     11.01320      9.87136        -0.050356      0.069482      0.011114
     11.31073     -0.20941      9.84230         0.019146     -0.027133      0.018869
      9.16857      1.01842      9.85514        -0.063603      0.025755      0.023479
      9.74443     12.23015      9.84123        -0.028250     -0.048255      0.014557
     12.02201      1.03947      9.85359         0.019279     -0.026062      0.020300
     11.30724      2.27901      9.85156        -0.018739      0.033207      0.026232
      9.16784      3.47838      9.90048        -0.024535      0.000540      0.046070
      9.88378      2.25524      9.85293        -0.017938      0.034891      0.025251
     11.99128      3.53628      9.88141        -0.049380     -0.040504      0.021821
     11.25105      4.77177      9.89976         0.057350      0.039210      0.015849
      9.04229      5.95086      9.97495        -0.157846     -0.047817      0.007190
      9.82639      4.74386      9.92280        -0.042877      0.003856     -0.000682
     11.91732      6.03508      9.91586        -0.019460     -0.061734      0.001543
     11.14736      7.26070      9.90125         0.066608      0.125548      0.008250
      8.96514      8.51345      9.90244        -0.493295      0.138946     -0.070130
      9.68848      7.24496      9.92142         0.027005     -0.100454      0.002598
     11.86685      8.50121      9.88095        -0.086368     -0.057694      0.005129
     11.15383      9.74339      9.86513        -0.052177     -0.031288      0.013861
      9.02710     10.99805      9.85750        -0.047205      0.072390      0.006548
      9.71987      9.74125      9.87218         0.090865     -0.026006      0.000839
     11.87378     10.99196      9.85681         0.003799      0.048293      0.010386
      3.31463      6.09407     10.26514        -0.666935     -0.412293     -0.526262
      5.71462      4.61786     10.45870         0.571891     -0.525059     -0.768870
      7.67064      5.83994     10.08543         0.327724     -0.842042      0.104472
      4.78095      8.57426      9.91280        -0.406211      0.223626      0.244585
      7.57723      8.57797      9.89217         0.690281      0.579076     -0.028274
      4.97058      6.17323     11.09614        -1.566743     -0.650574      1.771031
      6.19840      7.16529      9.93744         1.592152      1.120670     -1.541325
    total drift:                                0.027589      0.045072     -0.002669

  FREE ENERGIE OF THE ION-ELECTRON SYSTEM (eV)
  free  energy   TOTEN  =      -621.56699314 eV

  energy  without entropy=     -621.56535814  energy(sigma->0) =     -621.56617564

 stress matrix after NEB project (eV)
    -43.18406      0.23560     -1.64429
      0.23549    -43.15803     -1.12562
     -1.64519     -1.12753      1.12379
  FORCES: max atom, RMS     2.483251    0.543286
  FORCE total and by dimension    4.173056    1.771031
  Stress total and by dimension   61.129381   43.184059
 writing wavefunctions

 total charge

[...]

 magnetization (x)

# of ion       s       p       d       tot
    1        0.000   0.000   0.000   0.000
    2        0.000   0.002   0.000   0.002
    3       -0.000  -0.002   0.000  -0.002
    4       -0.000  -0.000   0.000  -0.001
    5        0.000   0.002   0.000   0.002
    6        0.000   0.002   0.000   0.002
    7       -0.000  -0.001   0.000  -0.001
    8       -0.000   0.000   0.000   0.000
    9        0.001   0.005   0.000   0.006
   10        0.000   0.007   0.000   0.007
   11        0.000  -0.001   0.000  -0.001
   12        0.001   0.007   0.000   0.008
   13        0.000   0.001   0.000   0.001
   14       -0.000  -0.003   0.000  -0.003
   15        0.001  -0.001   0.000  -0.000
   16       -0.000   0.000   0.000   0.000
   17        0.000   0.003   0.000   0.003
   18       -0.000  -0.002   0.000  -0.002
   19       -0.000  -0.002   0.000  -0.002
   20        0.000   0.003   0.000   0.004
   21        0.000   0.002   0.000   0.002
   22       -0.000  -0.002   0.000  -0.002
   23       -0.000  -0.004   0.000  -0.005
   24        0.001   0.007   0.000   0.007
   25        0.001   0.005   0.000   0.006
   26       -0.000  -0.002   0.000  -0.002
   27       -0.001  -0.007   0.000  -0.007
   28        0.002   0.020   0.000   0.023
   29        0.003   0.015   0.000   0.018
   30        0.000  -0.000   0.000  -0.000
   31        0.002   0.005   0.000   0.007
   32       -0.000  -0.005   0.000  -0.005
   33        0.000   0.003   0.000   0.003
   34        0.001   0.008   0.000   0.009
   35       -0.000  -0.005   0.000  -0.005
   36       -0.000  -0.002   0.000  -0.002
   37        0.000   0.004   0.000   0.004
   38        0.001   0.009   0.000   0.009
   39       -0.000  -0.004   0.000  -0.005
   40       -0.000  -0.003   0.000  -0.004
   41        0.000   0.004   0.000   0.004
   42        0.001   0.013   0.000   0.014
   43       -0.001  -0.006   0.000  -0.007
   44       -0.000  -0.003   0.000  -0.004
   45        0.000   0.005   0.000   0.005
   46        0.001   0.010   0.000   0.011
   47       -0.000  -0.003   0.000  -0.003
   48       -0.000  -0.002   0.000  -0.002
   49        0.000   0.004   0.000   0.004
   50        0.001   0.008   0.000   0.009
   51       -0.001  -0.005   0.000  -0.005
   52       -0.000  -0.002   0.000  -0.002
   53        0.004   0.018   0.000   0.022
   54        0.003   0.003   0.000   0.005
   55       -0.008  -0.040   0.000  -0.048
   56       -0.009  -0.041   0.000  -0.050
   57       -0.006  -0.038   0.000  -0.044
   58        0.022   0.052  -0.747  -0.674
   59        0.082   0.048   3.231   3.360
tot          0.098   0.086   2.483   2.667