 vasp.5.4.4.18Apr17-6-g9f103f2a35 (build Feb 25 2019 10:51:38) complex

 executed on             LinuxIFC date 2021.03.06  03:18:15

 INCAR:
 POTCAR:    PAW_PBE C 08Apr2002
 POTCAR:    PAW_PBE N 08Apr2002
 POTCAR:    PAW_PBE Co 02Aug2007
 POTCAR:    PAW_PBE Fe 06Sep2000

 POTCAR:    PAW_PBE C 08Apr2002
   VRHFIN =C: s2p2

   TITEL  = PAW_PBE C 08Apr2002
   POMASS =   12.011; ZVAL   =    4.000    mass and valenz
   ENMAX  =  400.000; ENMIN  =  300.000 eV

 POTCAR:    PAW_PBE N 08Apr2002
   VRHFIN =N: s2p3

   TITEL  = PAW_PBE N 08Apr2002
   POMASS =   14.001; ZVAL   =    5.000    mass and valenz
   ENMAX  =  400.000; ENMIN  =  300.000 eV

 POTCAR:    PAW_PBE Co 02Aug2007
   VRHFIN =Co: d8 s1

   TITEL  = PAW_PBE Co 02Aug2007
   POMASS =   58.933; ZVAL   =    9.000    mass and valenz
   ENMAX  =  267.968; ENMIN  =  200.976 eV

 POTCAR:    PAW_PBE Fe 06Sep2000
   VRHFIN =Fe:  d7 s1

   TITEL  = PAW_PBE Fe 06Sep2000
   POMASS =   55.847; ZVAL   =    8.000    mass and valenz
   ENMAX  =  267.882; ENMIN  =  200.911 eV

  PAW_PBE C 08Apr2002                   :
  PAW_PBE N 08Apr2002                   :
  PAW_PBE Co 02Aug2007                  :
  PAW_PBE Fe 06Sep2000                  :

 POSCAR:  C  N Co Fe
  positions in cartesian coordinates
 exchange correlation table for  LEXCH =        8
   RHO(1)=    0.500       N(1)  =     2000
   RHO(2)=  100.500       N(2)  =     4000

 VTST: version 3.2, (02/03/18)

 CHAIN: initializing optimizer

 OPT: Using VASP Conjugate-Gradient optimizer
 CHAIN: Read ICHAIN            0

 POSCAR:  C  N Co Fe
  positions in cartesian coordinates

 ion  position               nearest neighbor table
   1  0.222  0.999  0.500-   3 1.41   4 1.41  17 1.42
   2  0.055  0.100  0.500-  34 1.42   7 1.43   3 1.43
   3  0.110  1.000  0.500-   1 1.41  15 1.43   2 1.43
   4  0.277  0.096  0.500-  19 1.41   1 1.41   5 1.42
   5  0.223  0.195  0.500-   7 1.42   4 1.42   8 1.42
   6  0.058  0.300  0.500-   7 1.44  38 1.44  10 1.45
   7  0.111  0.199  0.500-   5 1.42   2 1.43   6 1.44
   8  0.281  0.292  0.500-  51 1.37  53 1.38   5 1.42
   9  0.064  0.498  0.500-  10 1.45  12 1.46  42 1.47
  10  0.121  0.397  0.500-  51 1.42   6 1.45   9 1.45
  11  0.059  0.699  0.500-  46 1.43  16 1.43  12 1.45
  12  0.119  0.601  0.500-  52 1.38  11 1.45   9 1.46
  13  0.278  0.703  0.500-  52 1.37  14 1.41  25 1.42
  14  0.223  0.802  0.500-  13 1.41  16 1.41  17 1.42
  15  0.056  0.899  0.500-  50 1.41  16 1.43   3 1.43
  16  0.111  0.800  0.500-  14 1.41  15 1.43  11 1.43
  17  0.278  0.900  0.500-  28 1.41  14 1.42   1 1.42
  18  0.556  0.999  0.500-  20 1.41  21 1.42  30 1.42
  19  0.389  0.096  0.500-  23 1.41   4 1.41  20 1.42
  20  0.445  0.998  0.500-  18 1.41  19 1.42  28 1.42
  21  0.611  0.097  0.500-  22 1.41  32 1.41  18 1.42
  22  0.556  0.195  0.500-  54 1.37  21 1.41  23 1.42
  23  0.443  0.194  0.500-  53 1.38  19 1.41  22 1.42
  24  0.552  0.608  0.500-  55 1.37  56 1.38  26 1.42
  25  0.391  0.704  0.500-  56 1.38  29 1.41  13 1.42
  26  0.611  0.704  0.500-  27 1.41  44 1.42  24 1.42
  27  0.556  0.803  0.500-  29 1.41  26 1.41  30 1.42
  28  0.389  0.900  0.500-  17 1.41  29 1.42  20 1.42
  29  0.445  0.802  0.500-  25 1.41  27 1.41  28 1.42
  30  0.612  0.900  0.500-  48 1.41  27 1.42  18 1.42
  31  0.889  1.000  0.500-  33 1.41  34 1.43  50 1.44
  32  0.723  0.099  0.500-  21 1.41  33 1.43  37 1.44
  33  0.778  1.000  0.500-  31 1.41  32 1.43  48 1.43
  34  0.943  0.101  0.500-   2 1.42  31 1.43  35 1.44
  35  0.888  0.201  0.500-  37 1.43  34 1.44  38 1.44
  36  0.714  0.299  0.500-  54 1.38  37 1.45  41 1.46
  37  0.775  0.201  0.500-  35 1.43  32 1.44  36 1.45
  38  0.944  0.302  0.500-  39 1.44  35 1.44   6 1.44
  39  0.886  0.401  0.500-  38 1.44  42 1.45  41 1.48
  40  0.714  0.503  0.500-  55 1.41  45 1.44  41 1.45
  41  0.769  0.401  0.500-  40 1.45  36 1.46  39 1.48
  42  0.948  0.498  0.500-  43 1.44  39 1.45   9 1.47
  43  0.890  0.598  0.500-  46 1.44  45 1.44  42 1.44
  44  0.723  0.700  0.500-  26 1.42  49 1.43  45 1.44
  45  0.776  0.599  0.500-  44 1.44  40 1.44  43 1.44
  46  0.946  0.698  0.500-  11 1.43  47 1.44  43 1.44
  47  0.891  0.799  0.500-  49 1.42  50 1.44  46 1.44
  48  0.724  0.900  0.500-  30 1.41  33 1.43  49 1.43
  49  0.779  0.799  0.500-  47 1.42  44 1.43  48 1.43
  50  0.944  0.899  0.500-  15 1.41  47 1.44  31 1.44
  51  0.233  0.390  0.500-   8 1.37  10 1.42  57 1.91
  52  0.228  0.606  0.500-  13 1.37  12 1.38  57 1.98
  53  0.390  0.291  0.500-   8 1.38  23 1.38  58 1.92
  54  0.606  0.293  0.500-  22 1.37  36 1.38  58 2.04
  55  0.602  0.510  0.500-  24 1.37  40 1.41  58 1.94
  56  0.443  0.607  0.500-  24 1.38  25 1.38  57 1.91
  57  0.340  0.496  0.500-  56 1.91  51 1.91  52 1.98  58 2.19
  58  0.490  0.406  0.501-  53 1.92  55 1.94  54 2.04  57 2.19

  LATTYP: Found a triclinic cell.
 ALAT       =    34.4751150416
 B/A-ratio  =     0.3636686387
 C/A-ratio  =     0.5808817333
 COS(alpha) =     0.0000792994
 COS(beta)  =     0.5811842975
 COS(gamma) =     0.7263524408

  Lattice vectors:

 A1 = (  12.6258460456, -25.0573786883, -20.0312092004)
 A2 = (  -0.0169525239, -12.5375066834,  -0.0005008136)
 A3 = (   0.0066459167,  -0.0007970922, -20.0259634622)

Analysis of symmetry for initial positions (statically):
 Subroutine PRICEL returns:
 Original cell was already a primitive cell.

 Routine SETGRP: Setting up the symmetry group for a
 triclinic supercell.

 Subroutine GETGRP returns: Found  1 space group operations
 (whereof  1 operations were pure point group operations)
 out of a pool of  2 trial point group operations.

The static configuration has the point symmetry C_1 .

Analysis of symmetry for dynamics (positions and initial velocities):
 Subroutine PRICEL returns:
 Original cell was already a primitive cell.

[...]

The dynamic configuration has the point symmetry C_1 .

Analysis of structural, dynamic, and magnetic symmetry:
 Subroutine PRICEL returns:
 Original cell was already a primitive cell.

 Routine SETGRP: Setting up the symmetry group for a
 triclinic supercell.

 Subroutine GETGRP returns: Found  1 space group operations
 (whereof  1 operations were pure point group operations)
 out of a pool of  2 trial point group operations.

The magnetic configuration has the point symmetry C_1 .

 Subroutine INISYM returns: Found  1 space group operations
 (whereof  1 operations are pure point group operations),
 and found     1 'primitive' translations

 KPOINTS: KPOINTS created by Atomic Simulation Env

Automatic generation of k-mesh.
Space group operators:
 irot       det(A)        alpha          n_x          n_y          n_z        tau_x        tau_y        tau_z
    1     1.000000     0.000000     1.000000     0.000000     0.000000     0.000000     0.000000     0.000000

 Subroutine IBZKPT returns following result:

 Found      2 irreducible k-points:

 Following reciprocal coordinates:
            Coordinates               Weight
  0.250000  0.250000  0.000000      2.000000
 -0.250000  0.250000  0.000000      2.000000

 Following cartesian coordinates:
            Coordinates               Weight
  0.019729  0.019913  0.000006      2.000000
 -0.019787  0.019967 -0.000007      2.000000

 Subroutine IBZKPT_HF returns following result:

 Found      4 k-points in 1st BZ
 the following      4 k-points will be used (e.g. in the exchange kernel)
 Following reciprocal coordinates:   # in IRBZ
  0.250000  0.250000  0.000000    0.25000000   1 t-inv F
 -0.250000  0.250000  0.000000    0.25000000   2 t-inv F
 -0.250000 -0.250000  0.000000    0.25000000   1 t-inv T
  0.250000 -0.250000  0.000000    0.25000000   2 t-inv T

 SYSTEM =  unknown system
 POSCAR =   C  N Co Fe

 Startparameter for this run:
   NWRITE =      2    write-flag & timer
   PREC   = accura    normal or accurate (medium, high low for compatibility)
   ISTART =      1    job   : 0-new  1-cont  2-samecut
   ICHARG =      0    charge: 1-file 2-atom 10-const
   ISPIN  =      2    spin polarized calculation?
   LNONCOLLINEAR =      F non collinear calculations
   LSORBIT =      F    spin-orbit coupling
   INIWAV =      1    electr: 0-lowe 1-rand  2-diag
   LASPH  =      T    aspherical Exc in radial PAW
   METAGGA=      F    non-selfconsistent MetaGGA calc.

 Electronic Relaxation 1
   ENCUT  =  500.0 eV  36.75 Ry    6.06 a.u.  23.07 22.86 36.51*2*pi/ulx,y,z
   ENINI  =  500.0     initial cutoff
   ENAUG  =  644.9 eV  augmentation charge cutoff
   NELM   =    250;   NELMIN=  2; NELMDL=  0     # of ELM steps
   EDIFF  = 0.1E-03   stopping-criterion for ELM
   LREAL  =      F    real-space projection
   NLSPLINE    = F    spline interpolate recip. space projectors
   LCOMPAT=      F    compatible to vasp.4.4
   GGA_COMPAT  = T    GGA compatible to vasp.4.4-vasp.4.6
   LMAXPAW     = -100 max onsite density
   LMAXMIX     =    2 max onsite mixed and CHGCAR
   VOSKOWN=      0    Vosko Wilk Nusair interpolation
   ROPT   =    0.00000   0.00000   0.00000   0.00000
 Ionic relaxation
   EDIFFG = -.3E-01   stopping-criterion for IOM
   NSW    =      0    number of steps for IOM
   NBLOCK =      1;   KBLOCK =      1    inner block; outer block
   IBRION =     -1    ionic relax: 0-MD 1-quasi-New 2-CG
   NFREE  =      1    steps in history (QN), initial steepest desc. (CG)
   ISIF   =      2    stress and relaxation
   IWAVPR =     10    prediction:  0-non 1-charg 2-wave 3-comb
   ISYM   =      3    0-nonsym 1-usesym 2-fastsym
   LCORR  =      T    Harris-Foulkes like correction to forces

   POTIM  = 0.5000    time-step for ionic-motion
   TEIN   =    0.0    initial temperature
   TEBEG  =    0.0;   TEEND  =   0.0 temperature during run
   SMASS  =  -3.00    Nose mass-parameter (am)
   estimated Nose-frequenzy (Omega)   =  0.10E-29 period in steps =****** mass=  -0.366E-26a.u.
   SCALEE = 1.0000    scale energy and forces
   NPACO  =    256;   APACO  = 16.0  distance and # of slots for P.C.
   PSTRESS=    0.0 pullay stress

  Mass of Ions in am
   POMASS =  12.01 14.00 58.93 55.85
  Ionic Valenz
   ZVAL   =   4.00  5.00  9.00  8.00
  Atomic Wigner-Seitz radii
  virtual crystal weights
   VCA    =   1.00  1.00  1.00  1.00
   NELECT =     247.0000    total number of electrons
   NUPDOWN=      -1.0000    fix difference up-down

 DOS related values:
   EMIN   =  10.00;   EMAX   =-10.00  energy-range for DOS
   EFERMI =   0.00
   ISMEAR =     0;   SIGMA  =   0.10  broadening in eV -4-tet -1-fermi 0-gaus

 Electronic relaxation 2 (details)
   IALGO  =     53    algorithm
   LDIAG  =      T    sub-space diagonalisation (order eigenvalues)
   LSUBROT=      F    optimize rotation matrix (better conditioning)
   TURBO    =      0    0=normal 1=particle mesh
   IRESTART =      0    0=no restart 2=restart with 2 vectors
   NREBOOT  =      0    no. of reboots
   NMIN     =      0    reboot dimension
   EREF     =   0.00    reference energy to select bands
   IMIX   =      4    mixing-type and parameters
     AMIX     =   0.40;   BMIX     =  1.00
     AMIX_MAG =   1.60;   BMIX_MAG =  1.00
     AMIN     =   0.10
     WC   =   100.;   INIMIX=   1;  MIXPRE=   1;  MAXMIX= -45

 Intra band minimization:
   WEIMIN = 0.0000     energy-eigenvalue tresh-hold
[...]
   35        0.861   1.751   0.000   2.612
   36        0.850   1.695   0.000   2.545
   37        0.862   1.757   0.000   2.619
   38        0.857   1.740   0.000   2.597
   39        0.851   1.710   0.000   2.561
   40        0.844   1.686   0.000   2.530
   41        0.842   1.720   0.000   2.562
   42        0.851   1.710   0.000   2.560
   43        0.857   1.741   0.000   2.598
   44        0.866   1.764   0.000   2.630
   45        0.858   1.749   0.000   2.607
   46        0.861   1.752   0.000   2.613
   47        0.864   1.763   0.000   2.627
   48        0.867   1.773   0.000   2.641
   49        0.866   1.774   0.000   2.640
   50        0.867   1.770   0.000   2.636
   51        1.225   2.669   0.000   3.894
   52        1.235   2.664   0.000   3.899
   53        1.227   2.687   0.000   3.914
   54        1.232   2.662   0.000   3.895
   55        1.225   2.674   0.000   3.899
   56        1.223   2.682   0.000   3.905
   57        0.470   0.517   7.312   8.299
   58        0.420   0.508   6.282   7.210
tot         51.435 105.160  13.594 170.188

 magnetization (x)

[...]

  FORCE on cell =-STRESS in cart. coord.  units (eV):
  Direction    XX          YY          ZZ          XY          YZ          ZX
  Alpha Z   100.26429   100.26429   100.26429
  Ewald   49354.30058 49206.32441-58067.47261     1.65521     3.93849   -35.19593
  Hartree 48698.29394 48695.39781-48088.26756     5.08151     3.41867   -31.81361
  E(xc)    -726.48217  -727.17298  -741.34899     0.10055     0.00443    -0.00852
  Local  ************************102871.93777    -8.34743    -7.29623    66.79871
  n-local  -148.59439  -151.87678  -141.81347    -2.67634    -0.00662     0.00609
  augment   163.32323   170.03298   178.83875    -3.73646    -0.00520     0.03084
  Kinetic  3654.99785  3690.39998  4211.86736     4.80535    -0.06459     0.21333
  Fock     -342.65360  -345.82536  -324.37816     2.71886     0.00604    -0.00566
  Total     -40.09650   -44.14932    -0.37263    -0.39875    -0.00500     0.02524
  in kB     -20.22164   -22.26557    -0.18792    -0.20110    -0.00252     0.01273

 VOLUME and BASIS-vectors are now :
  energy-cutoff  :      500.00
  volume of cell :     3176.88
      direct lattice vectors                 reciprocal lattice vectors
    12.653105177  0.018431771 -0.004244111     0.079032148 -0.000106864  0.000026232
     0.016952524 12.537506683  0.000500814    -0.000116189  0.079760833 -0.000003213
    -0.006645917  0.000797092 20.025963462     0.000016752 -0.000002017  0.049935181

  length of vectors
    12.653119313 12.537518154 20.025964581     0.079032225  0.079760917  0.049935184

 FORCES acting on ions:
    Electron-Ion                     Ewald-Force                    Non-Local-Force
   0.758E+01 0.295E+01 0.341E+00   -.774E+01 -.319E+01 -.342E+00   0.117E+00 0.311E+00 0.200E-02
   0.571E+01 0.935E+00 0.329E+00   -.586E+01 -.102E+01 -.330E+00   0.189E+00 0.860E-01 0.983E-03
   0.148E+02 -.205E+00 0.163E+00   -.148E+02 0.258E+00 -.162E+00   0.122E+00 0.281E-02 -.117E-02
   0.121E+02 0.116E+02 0.399E+00   -.123E+02 -.121E+02 -.395E+00   0.755E-01 0.438E+00 -.655E-03
   0.209E+02 0.169E+02 0.337E+00   -.216E+02 -.178E+02 -.342E+00   0.633E+00 0.748E+00 0.602E-02
   0.226E+02 -.244E+01 0.325E+00   -.232E+02 0.278E+01 -.325E+00   0.497E+00 -.253E+00 0.713E-03
   0.233E+02 0.371E+01 0.428E+00   -.238E+02 -.364E+01 -.429E+00   0.606E+00 -.741E-01 0.237E-02
   0.337E+02 0.413E+02 -.476E+00   -.359E+02 -.441E+02 0.464E+00   0.232E+01 0.299E+01 0.108E-01
   0.225E+02 -.830E-01 0.202E+00   -.225E+02 -.121E+00 -.202E+00   0.378E-01 0.243E-01 0.106E-02
   0.468E+02 -.973E+01 0.455E-01   -.506E+02 0.103E+02 -.502E-01   0.358E+01 -.506E+00 0.559E-02
   0.169E+02 0.278E+01 0.165E+00   -.173E+02 -.292E+01 -.165E+00   0.357E+00 0.157E+00 0.882E-04
   0.564E+02 0.111E+02 0.159E+00   -.597E+02 -.115E+02 -.158E+00   0.347E+01 0.523E+00 0.225E-03
   0.624E+01 -.447E+02 0.204E+00   -.508E+01 0.475E+02 -.207E+00   -.113E+01 -.267E+01 0.327E-02
   0.109E+02 -.167E+02 0.109E+00   -.108E+02 0.172E+02 -.110E+00   -.829E-01 -.411E+00 0.405E-03
   0.225E+01 -.151E+01 -.422E-01   -.241E+01 0.157E+01 0.418E-01   0.117E+00 -.112E+00 -.118E-02
   0.201E+02 -.566E+01 0.102E-01   -.204E+02 0.575E+01 -.104E-01   0.297E+00 -.639E-01 -.705E-03
   0.104E+02 -.564E+01 0.196E+00   -.102E+02 0.574E+01 -.194E+00   -.997E-01 -.150E+00 -.334E-02
   -.105E+02 0.347E+01 0.626E+00   0.103E+02 -.356E+01 -.624E+00   0.936E-01 0.175E+00 -.930E-03
   0.105E+01 0.177E+02 0.458E+00   -.836E+00 -.182E+02 -.460E+00   -.771E-01 0.610E+00 0.435E-02
   0.302E+00 0.445E+01 0.653E+00   0.171E-01 -.472E+01 -.654E+00   -.224E+00 0.246E+00 0.232E-02
   -.106E+02 0.135E+02 0.577E+00   0.104E+02 -.140E+02 -.579E+00   0.440E-01 0.474E+00 0.470E-02
   -.514E+01 0.355E+02 0.111E+00   0.396E+01 -.383E+02 -.119E+00   0.114E+01 0.274E+01 0.996E-02
   -.137E+02 0.404E+02 -.198E+00   0.155E+02 -.434E+02 0.188E+00   -.174E+01 0.297E+01 0.920E-02
   -.359E+02 -.355E+02 0.504E-01   0.382E+02 0.386E+02 -.647E-01   -.209E+01 -.329E+01 0.165E-01
   0.816E+01 -.474E+02 0.208E+00   -.102E+02 0.507E+02 -.212E+00   0.176E+01 -.300E+01 0.443E-02
   -.226E+02 -.150E+02 0.615E+00   0.233E+02 0.159E+02 -.620E+00   -.654E+00 -.816E+00 0.780E-02
   -.130E+02 -.128E+02 0.576E+00   0.132E+02 0.134E+02 -.577E+00   -.588E-01 -.430E+00 0.161E-02
   -.145E+01 -.602E+01 0.450E+00   0.113E+01 0.628E+01 -.450E+00   0.218E+00 -.243E+00 0.345E-04
   -.267E+01 -.194E+02 0.408E+00   0.244E+01 0.199E+02 -.408E+00   0.747E-01 -.616E+00 -.194E-03
   -.795E+01 -.349E+01 0.517E+00   0.805E+01 0.367E+01 -.518E+00   -.139E+00 -.324E+00 0.262E-03
   -.840E+01 0.129E+00 0.258E-02   0.837E+01 -.875E-01 -.257E-02   -.188E-01 -.385E-01 -.199E-02
   -.189E+02 0.311E+01 0.402E+00   0.192E+02 -.319E+01 -.400E+00   -.301E+00 0.855E-01 -.107E-03
   -.168E+01 0.833E+00 0.188E+00   0.185E+01 -.931E+00 -.189E+00   -.119E+00 0.111E+00 -.393E-03
   0.784E+01 -.319E+01 0.225E+00   -.797E+01 0.334E+01 -.225E+00   0.103E+00 -.109E+00 -.347E-03
   -.568E+01 -.428E+01 0.408E+00   0.594E+01 0.454E+01 -.408E+00   -.269E+00 -.293E+00 0.170E-02
   -.490E+02 -.141E+02 -.292E-01   0.523E+02 0.146E+02 0.241E-01   -.353E+01 -.495E+00 0.625E-02
   -.143E+02 -.406E+01 0.387E+00   0.148E+02 0.414E+01 -.387E+00   -.400E+00 -.161E+00 0.279E-02
   0.495E+01 -.385E+01 0.393E+00   -.518E+01 0.426E+01 -.391E+00   0.203E+00 -.327E+00 0.649E-03
   0.499E+01 -.328E+01 0.220E+00   -.506E+01 0.340E+01 -.219E+00   0.168E+00 -.134E+00 0.422E-03
   -.421E+02 0.149E+02 -.271E+00   0.460E+02 -.154E+02 0.259E+00   -.383E+01 0.511E+00 0.109E-01
   -.167E+02 0.139E+01 -.186E+00   0.168E+02 -.125E+01 0.187E+00   -.626E-01 -.227E-01 -.123E-02
   -.174E+01 0.400E+01 0.330E+00   0.183E+01 -.414E+01 -.328E+00   -.192E+00 0.142E+00 -.185E-03
   -.317E+01 0.479E+01 0.472E+00   0.345E+01 -.517E+01 -.472E+00   -.232E+00 0.315E+00 0.282E-02
   -.222E+02 -.251E+01 0.431E+00   0.227E+02 0.239E+01 -.428E+00   -.584E+00 0.449E-01 -.114E-02
   -.208E+02 0.341E+01 0.364E+00   0.213E+02 -.364E+01 -.365E+00   -.538E+00 0.233E+00 0.366E-02
   0.738E+01 0.371E+01 0.324E+00   -.761E+01 -.398E+01 -.324E+00   0.231E+00 0.278E+00 0.164E-02
   -.667E+01 0.263E+01 0.127E+00   0.680E+01 -.278E+01 -.127E+00   -.107E+00 0.124E+00 -.805E-03
   -.148E+02 -.552E+00 0.251E+00   0.149E+02 0.494E+00 -.250E+00   -.109E+00 0.146E-02 -.236E-02
   -.540E+01 -.108E+01 0.288E+00   0.557E+01 0.119E+01 -.289E+00   -.185E+00 -.605E-01 0.532E-03
   0.935E+01 -.677E+00 -.854E-01   -.933E+01 0.623E+00 0.848E-01   0.153E-01 0.378E-01 -.169E-02
   0.547E+02 -.256E+02 -.816E+00   -.457E+02 0.432E+02 0.853E+00   -.875E+01 -.171E+02 -.355E-01
   0.361E+02 0.251E+02 0.220E+00   -.246E+02 -.442E+02 -.215E+00   -.111E+02 0.181E+02 -.524E-02
   -.127E+02 -.152E+01 -.209E+01   0.218E+02 0.173E+02 0.221E+01   -.923E+01 -.151E+02 -.119E+00
   -.196E+02 -.429E+02 -.761E+00   0.820E+01 0.619E+02 0.837E+00   0.108E+02 -.177E+02 -.723E-01
   -.449E+02 0.456E+02 -.174E+01   0.360E+02 -.632E+02 0.186E+01   0.845E+01 0.170E+02 -.116E+00
   -.963E+01 -.264E+01 -.211E+00   0.550E+00 -.129E+02 0.243E+00   0.909E+01 0.145E+02 -.288E-01
   0.381E+02 0.754E+01 -.123E+01   -.417E+02 -.598E+01 0.123E+01   0.145E+01 -.549E+00 -.208E-02
   -.640E+02 0.129E+02 -.529E+01   0.672E+02 -.155E+02 0.525E+01   -.719E+00 0.175E+01 0.399E-01
   0.200E+00 -.737E+00 0.259E+00   -.284E-12 0.398E-12 -.355E-14   -.251E+00 0.715E+00 -.231E+00

 POSITION                                       TOTAL-FORCE (eV/Angst)
      2.81794     12.52575     10.01192        -0.038176      0.081720      0.000636
      0.69635      1.25121     10.01214         0.037261      0.009879      0.000544
      1.40678     12.53387     10.01268         0.080132      0.054463     -0.000062
      3.50699      1.21390     10.01167        -0.077404      0.027251      0.002510
      2.81953      2.45353     10.01285        -0.047469     -0.098354      0.002141
      0.73702      3.76808     10.01287         0.003676      0.067169      0.001683
      1.40405      2.49402     10.01225         0.085484     -0.006181      0.002230
      3.56030      3.66345     10.01614         0.269459      0.368085     -0.000577
      0.82103      6.24433     10.01341         0.036137     -0.179624      0.001304
      1.53209      4.97588     10.01415        -0.013280      0.001937      0.001170
      0.74901      8.76122     10.01306        -0.025063      0.024412      0.000149
      1.51809      7.53142     10.01328         0.467843      0.147036      0.000551
      3.52564      8.82408     10.01275        -0.037916     -0.091752      0.000534
      2.83023     10.05349     10.01256         0.036711      0.037457     -0.000981
      0.71679     11.27863     10.01339        -0.042276     -0.049411     -0.001702
      1.41664     10.03026     10.01314         0.032237      0.020496     -0.000992
      3.52473     11.29215     10.01181         0.075285     -0.054997     -0.001520
      7.05071     12.53159     10.00957        -0.103437      0.089079      0.001083
      4.92006      1.21495     10.01143         0.134533      0.095133      0.002707
      5.64339     12.52398     10.01018         0.088651     -0.013593      0.001541
      7.72841      1.23247     10.00980        -0.092536     -0.017420      0.002790
      7.03078      2.46007     10.01284         0.016500      0.081168      0.002562
      5.60614      2.44538     10.01445        -0.019325      0.045439     -0.000094
      6.99268      7.62826     10.01364         0.155393     -0.433767      0.003167
      4.95031      8.83472     10.01252        -0.164630      0.088928      0.000266
      7.73572      8.83671     10.01032         0.018507     -0.012585      0.002846
      7.04976     10.07375     10.00977         0.104195      0.087505      0.000632
      4.93148     11.29674     10.01068        -0.095619      0.001561     -0.000491
      5.63659     10.06660     10.01082        -0.154039     -0.136975      0.000039
      7.75719     11.29957     10.00929        -0.034927     -0.163118     -0.000734
     11.26728     12.55355     10.00961        -0.065714      0.002340     -0.002130
      9.14206      1.25860     10.00930         0.009639      0.011520      0.001230
      9.85795     12.54846     10.00959         0.051688      0.019779     -0.001377
     11.93257      1.27799     10.00848        -0.009142      0.035229     -0.000427
     11.23806      2.54149     10.00862        -0.029395     -0.044523      0.001857
      9.04088      3.75736     10.01229        -0.429252     -0.039058      0.001576
      9.81072      2.52928     10.00966         0.016652     -0.094638      0.002311
     11.94547      3.79925     10.00867        -0.013589      0.065763      0.002087
     11.21395      5.04267     10.00973         0.126313     -0.022011      0.001445
      9.03513      6.31782     10.01332        -0.092583      0.001823      0.000032
      9.73884      5.04494     10.01213        -0.034181      0.117576     -0.000402
     11.99995      6.26525     10.00901        -0.120724      0.015136      0.002104
     11.26928      7.51038     10.00884         0.040409     -0.042460      0.003038
      9.15316      8.79559     10.00972        -0.054425     -0.068780      0.002178
      9.82652      7.52412     10.01018        -0.025353      0.017884      0.003217
     11.97509      8.76784     10.00872         0.021502      0.022193      0.001428
     11.27856     10.02975     10.00927         0.007950     -0.017818     -0.000442
      9.16762     11.29236     10.00945        -0.021808     -0.055649     -0.001486
      9.86111     10.03745     10.00932        -0.022134      0.047952     -0.000152
     11.96089     11.29225     10.00961         0.054813     -0.015422     -0.002415
      2.94562      4.88935     10.01639        -0.487762     -0.984854     -0.001763
      2.89324      7.60477     10.01346        -0.536463      0.547461     -0.000195
      4.93767      3.65712     10.01896        -0.893554     -0.602210     -0.011710
      7.66337      3.67949     10.01502         0.387815     -0.308126     -0.002248
      7.62626      6.41134     10.01727         0.258043      0.939703     -0.011547
      5.61116      7.61855     10.01435         0.789701      0.228447      0.000771
      4.31329      6.22068     10.01665        -1.545719      0.899165     -0.002752
      6.19953      5.10143     10.02225         1.921362     -0.747364     -0.008161
    total drift:                               -0.003140     -0.005933      0.001122

  FREE ENERGIE OF THE ION-ELECTRON SYSTEM (eV)
  free  energy   TOTEN  =      -609.30531778 eV

  energy  without entropy=     -609.29965920  energy(sigma->0) =     -609.30248849

 stress matrix after NEB project (eV)
    -40.09650     -0.39711      0.02524
     -0.39875    -44.14932     -0.00530
      0.02522     -0.00500     -0.37263
  FORCES: max atom, RMS     2.061614    0.483213
  FORCE total and by dimension    3.680039    1.921362
  Stress total and by dimension   59.643519   44.149324
 writing wavefunctions
 vacuum level on the upper side and lower side of the slab         1.492         1.492

 total charge

[...]

 magnetization (x)

# of ion       s       p       d       tot
    1        0.000   0.006   0.000   0.007
    2       -0.000   0.001   0.000   0.001
    3        0.000   0.004   0.000   0.004
    4        0.000   0.006   0.000   0.006
    5        0.001   0.010   0.000   0.011
    6        0.001   0.012   0.000   0.013
    7       -0.000   0.001   0.000   0.001
    8        0.000   0.006   0.000   0.006
    9        0.000   0.010   0.000   0.010
   10        0.001   0.010   0.000   0.011
   11        0.000   0.011   0.000   0.011
   12       -0.001   0.004   0.000   0.003
   13       -0.000   0.004   0.000   0.004
   14        0.000   0.003   0.000   0.003
   15        0.000   0.010   0.000   0.011
   16        0.000   0.005   0.000   0.005
   17       -0.000   0.002   0.000   0.002
   18        0.000   0.005   0.000   0.005
   19       -0.001  -0.004   0.000  -0.004
   20        0.000   0.008   0.000   0.008
   21        0.000   0.002   0.000   0.002
   22       -0.000   0.003   0.000   0.003
   23        0.001   0.019   0.000   0.020
   24        0.000   0.012   0.000   0.012
   25        0.001   0.024   0.000   0.025
   26        0.000   0.008   0.000   0.008
   27        0.001   0.012   0.000   0.012
   28        0.001   0.010   0.000   0.010
   29       -0.001  -0.007   0.000  -0.008
   30        0.000   0.004   0.000   0.004
   31        0.000   0.008   0.000   0.008
   32        0.000   0.008   0.000   0.008
   33        0.000   0.008   0.000   0.008
   34        0.000   0.004   0.000   0.004
   35        0.000   0.006   0.000   0.006
   36       -0.001   0.009   0.000   0.008
   37        0.000   0.007   0.000   0.007
   38        0.001   0.015   0.000   0.016
   39       -0.000  -0.001   0.000  -0.001
   40        0.001   0.014   0.000   0.015
   41        0.000   0.007   0.000   0.008
   42       -0.000  -0.004   0.000  -0.004
   43        0.001   0.019   0.000   0.020
   44        0.000   0.004   0.000   0.004
   45        0.000   0.009   0.000   0.009
   46       -0.000   0.003   0.000   0.003
   47        0.000   0.006   0.000   0.007
   48        0.000   0.007   0.000   0.007
   49       -0.000  -0.002   0.000  -0.002
   50        0.000   0.005   0.000   0.005
   51        0.003   0.017   0.000   0.020
   52       -0.000   0.047   0.000   0.047
   53        0.003   0.031   0.000   0.034
   54        0.003   0.058   0.000   0.061
   55        0.004   0.010   0.000   0.015
   56        0.000   0.028   0.000   0.028
   57       -0.018  -0.030  -1.432  -1.480
   58       -0.076  -0.038  -2.220  -2.334
tot         -0.070   0.458  -3.652  -3.265