 vasp.5.4.4.18Apr17-6-g9f103f2a35 (build Feb 25 2019 10:51:38) complex

 executed on             LinuxIFC date 2021.08.09  16:05:37

 INCAR:
 POTCAR:    PAW_PBE C 08Apr2002
 POTCAR:    PAW_PBE N 08Apr2002
 POTCAR:    PAW_PBE Fe 06Sep2000
 POTCAR:    PAW_PBE V 08Apr2002

 POTCAR:    PAW_PBE C 08Apr2002
   VRHFIN =C: s2p2

   TITEL  = PAW_PBE C 08Apr2002
   POMASS =   12.011; ZVAL   =    4.000    mass and valenz
   ENMAX  =  400.000; ENMIN  =  300.000 eV

 POTCAR:    PAW_PBE N 08Apr2002
   VRHFIN =N: s2p3

[...]

 POTCAR:    PAW_PBE Fe 06Sep2000
   VRHFIN =Fe:  d7 s1

   TITEL  = PAW_PBE Fe 06Sep2000
   POMASS =   55.847; ZVAL   =    8.000    mass and valenz
   ENMAX  =  267.882; ENMIN  =  200.911 eV

 POTCAR:    PAW_PBE V 08Apr2002
   VRHFIN =V: p6 d4 s1

   TITEL  = PAW_PBE V 08Apr2002
   POMASS =   50.941; ZVAL   =    5.000    mass and valenz
   ENMAX  =  192.543; ENMIN  =  144.408 eV

  PAW_PBE C 08Apr2002                   :
  PAW_PBE N 08Apr2002                   :
  PAW_PBE Fe 06Sep2000                  :
  PAW_PBE V 08Apr2002                   :

 POSCAR:  C  N Fe  V
  positions in cartesian coordinates
 exchange correlation table for  LEXCH =        8
   RHO(1)=    0.500       N(1)  =     2000
   RHO(2)=  100.500       N(2)  =     4000

 VTST: version 3.2, (02/03/18)

 CHAIN: initializing optimizer

 OPT: Using VASP Conjugate-Gradient optimizer
 CHAIN: Read ICHAIN            0

 POSCAR:  C  N Fe  V
  positions in cartesian coordinates

 ion  position               nearest neighbor table
   1  0.221  0.998  0.500-   4 1.42   3 1.43  19 1.43
   2  0.052  0.100  0.500-   7 1.42  34 1.43   3 1.43
   3  0.110  1.000  0.500-  17 1.42   1 1.43   2 1.43
   4  0.275  0.098  0.500-   1 1.42  21 1.42   5 1.42
   5  0.217  0.198  0.500-   8 1.41   7 1.42   4 1.42
   6  0.051  0.301  0.500-   7 1.42  11 1.43  38 1.43
   7  0.106  0.200  0.500-   2 1.42   6 1.42   5 1.42
   8  0.272  0.296  0.499-  51 1.37   5 1.41   9 1.43
   9  0.217  0.398  0.499-  50 1.39  11 1.41   8 1.43
  10  0.055  0.501  0.500-  11 1.42  41 1.42  14 1.45
  11  0.108  0.399  0.500-   9 1.41  10 1.42   6 1.43
  12  0.227  0.594  0.500-  50 1.38  14 1.44  15 1.48
  13  0.059  0.700  0.500-  18 1.42  14 1.43  45 1.43
  14  0.115  0.599  0.500-  13 1.43  12 1.44  10 1.45
  15  0.288  0.695  0.500-  53 1.40  16 1.45  12 1.48
  16  0.227  0.795  0.500-  19 1.43  18 1.44  15 1.45
  17  0.057  0.900  0.500-   3 1.42  49 1.43  18 1.44
  18  0.115  0.799  0.500-  13 1.42  17 1.44  16 1.44
  19  0.279  0.897  0.500-  28 1.43   1 1.43  16 1.43
  20  0.554  0.003  0.500-  22 1.42  30 1.42  23 1.44
  21  0.386  0.100  0.500-   4 1.42  22 1.42  25 1.44
  22  0.443  1.000  0.500-  20 1.42  21 1.42  28 1.44
  23  0.607  0.105  0.500-  32 1.43  24 1.43  20 1.44
  24  0.549  0.206  0.500-  23 1.43  25 1.44  26 1.45
  25  0.437  0.203  0.499-  51 1.37  21 1.44  24 1.44
  26  0.604  0.307  0.500-  52 1.34  36 1.45  24 1.45
  27  0.559  0.800  0.500-  54 1.37  30 1.44  29 1.46
  28  0.390  0.898  0.500-  19 1.43  29 1.44  22 1.44
  29  0.446  0.795  0.500-  53 1.39  28 1.44  27 1.46
  30  0.611  0.902  0.500-  20 1.42  47 1.43  27 1.44
  31  0.888  0.003  0.500-  34 1.42  49 1.43  33 1.43
  32  0.719  0.106  0.500-  33 1.43  23 1.43  37 1.44
  33  0.776  0.005  0.500-  47 1.42  32 1.43  31 1.43
  34  0.941  0.103  0.500-  31 1.42   2 1.43  35 1.43
  35  0.884  0.204  0.500-  38 1.43  37 1.43  34 1.43
  36  0.717  0.309  0.501-  37 1.44  26 1.45  40 1.45
  37  0.773  0.207  0.500-  35 1.43  36 1.44  32 1.44
  38  0.939  0.303  0.500-  35 1.43  39 1.43   6 1.43
  39  0.885  0.406  0.501-  38 1.43  41 1.44  40 1.44
  40  0.772  0.411  0.501-  55 1.40  39 1.44  36 1.45
  41  0.944  0.503  0.500-  42 1.42  10 1.42  39 1.44
  42  0.890  0.605  0.500-  44 1.41  41 1.42  45 1.43
  43  0.725  0.707  0.500-  54 1.39  48 1.41  44 1.42
  44  0.780  0.605  0.501-  55 1.40  42 1.41  43 1.42
  45  0.947  0.703  0.500-  46 1.42  42 1.43  13 1.43
  46  0.891  0.803  0.500-  45 1.42  49 1.42  48 1.43
  47  0.722  0.905  0.500-  48 1.42  33 1.42  30 1.43
  48  0.780  0.805  0.500-  43 1.41  47 1.42  46 1.43
  49  0.945  0.903  0.500-  46 1.42  31 1.43  17 1.43
  50  0.275  0.492  0.499-  12 1.38   9 1.39  56 1.91
  51  0.379  0.297  0.498-  25 1.37   8 1.37  56 1.98
  52  0.554  0.403  0.500-  26 1.34  56 1.81  57 1.87
  53  0.397  0.695  0.500-  29 1.39  15 1.40
  54  0.617  0.705  0.500-  27 1.37  43 1.39  57 1.99
  55  0.721  0.512  0.501-  40 1.40  44 1.40  57 2.08
  56  0.419  0.451  0.497-  52 1.81  50 1.91  51 1.98  57 2.27
  57  0.563  0.554  0.501-  52 1.87  54 1.99  55 2.08  56 2.27

  LATTYP: Found a triclinic cell.
 ALAT       =    12.3182307667
 B/A-ratio  =     1.4597693083
 C/A-ratio  =     1.6307471525
 COS(alpha) =     0.0010888352
 COS(beta)  =     0.0019126429
 COS(gamma) =     0.7001665628

  Lattice vectors:

 A1 = (  -0.1310986856, -12.3175275450,  -0.0117275657)
 A2 = ( -12.9718858808, -12.4528840403,  -0.0097639468)
 A3 = (   0.0033600474,  -0.0193331955, -20.0879101619)

Analysis of symmetry for initial positions (statically):
 Subroutine PRICEL returns:
 Original cell was already a primitive cell.

 Routine SETGRP: Setting up the symmetry group for a
 triclinic supercell.

 Subroutine GETGRP returns: Found  1 space group operations
 (whereof  1 operations were pure point group operations)
 out of a pool of  2 trial point group operations.

The static configuration has the point symmetry C_1 .

Analysis of symmetry for dynamics (positions and initial velocities):
 Subroutine PRICEL returns:
 Original cell was already a primitive cell.

[...]

The dynamic configuration has the point symmetry C_1 .

Analysis of structural, dynamic, and magnetic symmetry:
 Subroutine PRICEL returns:
 Original cell was already a primitive cell.

 Routine SETGRP: Setting up the symmetry group for a
 triclinic supercell.

 Subroutine GETGRP returns: Found  1 space group operations
 (whereof  1 operations were pure point group operations)
 out of a pool of  2 trial point group operations.

The magnetic configuration has the point symmetry C_1 .

 Subroutine INISYM returns: Found  1 space group operations
 (whereof  1 operations are pure point group operations),
 and found     1 'primitive' translations

 KPOINTS: KPOINTS created by Atomic Simulation Env

Automatic generation of k-mesh.
Space group operators:
 irot       det(A)        alpha          n_x          n_y          n_z        tau_x        tau_y        tau_z
    1     1.000000     0.000000     1.000000     0.000000     0.000000     0.000000     0.000000     0.000000

 Subroutine IBZKPT returns following result:

 Found      2 irreducible k-points:

 Following reciprocal coordinates:
            Coordinates               Weight
  0.250000  0.250000 -0.000000      2.000000
 -0.250000  0.250000 -0.000000      2.000000

 Following cartesian coordinates:
            Coordinates               Weight
  0.019257  0.020091 -0.000016      2.000000
 -0.019685  0.020506 -0.000023      2.000000

 Subroutine IBZKPT_HF returns following result:

 Found      4 k-points in 1st BZ
 the following      4 k-points will be used (e.g. in the exchange kernel)
 Following reciprocal coordinates:   # in IRBZ
  0.250000  0.250000 -0.000000    0.25000000   1 t-inv F
 -0.250000  0.250000 -0.000000    0.25000000   2 t-inv F
 -0.250000 -0.250000  0.000000    0.25000000   1 t-inv T
  0.250000 -0.250000  0.000000    0.25000000   2 t-inv T

 SYSTEM =  unknown system
 POSCAR =   C  N Fe  V

 Startparameter for this run:
   NWRITE =      2    write-flag & timer
   PREC   = accura    normal or accurate (medium, high low for compatibility)
   ISTART =      1    job   : 0-new  1-cont  2-samecut
   ICHARG =      0    charge: 1-file 2-atom 10-const
   ISPIN  =      2    spin polarized calculation?
   LNONCOLLINEAR =      F non collinear calculations
   LSORBIT =      F    spin-orbit coupling
   INIWAV =      1    electr: 0-lowe 1-rand  2-diag
   LASPH  =      T    aspherical Exc in radial PAW
   METAGGA=      F    non-selfconsistent MetaGGA calc.

 Electronic Relaxation 1
   ENCUT  =  500.0 eV  36.75 Ry    6.06 a.u.  23.41 22.46 36.62*2*pi/ulx,y,z
   ENINI  =  500.0     initial cutoff
   ENAUG  =  644.9 eV  augmentation charge cutoff
   NELM   =    250;   NELMIN=  2; NELMDL=  0     # of ELM steps
   EDIFF  = 0.1E-03   stopping-criterion for ELM
   LREAL  =      F    real-space projection
   NLSPLINE    = F    spline interpolate recip. space projectors
   LCOMPAT=      F    compatible to vasp.4.4
   GGA_COMPAT  = T    GGA compatible to vasp.4.4-vasp.4.6
   LMAXPAW     = -100 max onsite density
   LMAXMIX     =    2 max onsite mixed and CHGCAR
   VOSKOWN=      0    Vosko Wilk Nusair interpolation
   ROPT   =    0.00000   0.00000   0.00000   0.00000
 Ionic relaxation
   EDIFFG = -.3E-01   stopping-criterion for IOM
   NSW    =      0    number of steps for IOM
   NBLOCK =      1;   KBLOCK =      1    inner block; outer block
   IBRION =     -1    ionic relax: 0-MD 1-quasi-New 2-CG
   NFREE  =      1    steps in history (QN), initial steepest desc. (CG)
   ISIF   =      2    stress and relaxation
   IWAVPR =     10    prediction:  0-non 1-charg 2-wave 3-comb
   ISYM   =      3    0-nonsym 1-usesym 2-fastsym
   LCORR  =      T    Harris-Foulkes like correction to forces

   POTIM  = 0.5000    time-step for ionic-motion
   TEIN   =    0.0    initial temperature
   TEBEG  =    0.0;   TEEND  =   0.0 temperature during run
   SMASS  =  -3.00    Nose mass-parameter (am)
   estimated Nose-frequenzy (Omega)   =  0.10E-29 period in steps =****** mass=  -0.377E-26a.u.
   SCALEE = 1.0000    scale energy and forces
   NPACO  =    256;   APACO  = 16.0  distance and # of slots for P.C.
   PSTRESS=    0.0 pullay stress

  Mass of Ions in am
   POMASS =  12.01 14.00 55.85 50.94
  Ionic Valenz
   ZVAL   =   4.00  5.00  8.00  5.00
  Atomic Wigner-Seitz radii
  virtual crystal weights
   VCA    =   1.00  1.00  1.00  1.00
   NELECT =     239.0000    total number of electrons
   NUPDOWN=      -1.0000    fix difference up-down

 DOS related values:
   EMIN   =  10.00;   EMAX   =-10.00  energy-range for DOS
   EFERMI =   0.00
   ISMEAR =     0;   SIGMA  =   0.10  broadening in eV -4-tet -1-fermi 0-gaus

 Electronic relaxation 2 (details)
   IALGO  =     53    algorithm
   LDIAG  =      T    sub-space diagonalisation (order eigenvalues)
   LSUBROT=      F    optimize rotation matrix (better conditioning)
   TURBO    =      0    0=normal 1=particle mesh
   IRESTART =      0    0=no restart 2=restart with 2 vectors
   NREBOOT  =      0    no. of reboots
   NMIN     =      0    reboot dimension
   EREF     =   0.00    reference energy to select bands
   IMIX   =      4    mixing-type and parameters
     AMIX     =   0.40;   BMIX     =  1.00
     AMIX_MAG =   1.60;   BMIX_MAG =  1.00
     AMIN     =   0.10
     WC   =   100.;   INIMIX=   1;  MIXPRE=   1;  MAXMIX= -45

 Intra band minimization:
   WEIMIN = 0.0000     energy-eigenvalue tresh-hold
   EBREAK =  0.16E-06  absolut break condition
   DEPER  =   0.30     relativ break condition

   TIME   =   0.20     timestep for ELM

  volume/ion in A,a.u.               =      55.73       376.12
[...]
   27        0.859   1.719   0.000   2.577
   28        0.862   1.759   0.000   2.621
   29        0.852   1.710   0.000   2.562
   30        0.864   1.769   0.000   2.633
   31        0.864   1.774   0.000   2.639
   32        0.861   1.757   0.000   2.619
   33        0.864   1.765   0.000   2.629
   34        0.867   1.770   0.000   2.637
   35        0.864   1.769   0.000   2.633
   36        0.855   1.757   0.000   2.612
   37        0.863   1.747   0.000   2.610
   38        0.866   1.767   0.000   2.633
   39        0.862   1.760   0.000   2.622
   40        0.851   1.693   0.000   2.544
   41        0.867   1.774   0.000   2.642
   42        0.870   1.789   0.000   2.659
   43        0.864   1.765   0.000   2.629
   44        0.863   1.750   0.000   2.614
   45        0.865   1.773   0.000   2.638
   46        0.868   1.787   0.000   2.655
   47        0.868   1.769   0.000   2.637
   48        0.870   1.786   0.000   2.656
   49        0.866   1.769   0.000   2.635
   50        1.226   2.685   0.000   3.910
   51        1.240   2.681   0.000   3.921
   52        1.255   2.629   0.000   3.885
   53        1.234   2.572   0.000   3.806
   54        1.238   2.687   0.000   3.926
   55        1.229   2.641   0.000   3.870
   56        0.493   0.620   6.185   7.298
   57        0.478   0.704   3.576   4.758
tot         50.691 103.438   9.762 163.891

 magnetization (x)

[...]

  FORCE on cell =-STRESS in cart. coord.  units (eV):
  Direction    XX          YY          ZZ          XY          YZ          ZX
  Alpha Z    96.59505    96.59505    96.59505
  Ewald   46502.22262 46460.89972-54699.78709   -81.63655    84.52138   -24.16745
  Hartree 45848.39548 45789.74509-45265.82184   -37.56527    79.81593   -19.41069
  E(xc)    -698.23238  -698.24499  -711.22428    -0.57192    -0.01514    -0.06509
  Local  -94934.68431-94826.10614 96899.78396   108.53006  -164.27265    43.02441
  n-local  -176.09208  -173.36897  -172.31013     2.22299     0.05815     0.05646
  augment    39.71687    39.21117    42.69290     0.53799    -0.02707     0.09287
  Kinetic  3581.28062  3567.52327  4085.82109    10.43937    -0.05530     0.61802
  Fock     -298.62700  -298.27296  -276.16297    -0.29845     0.01431    -0.04558
  Total     -39.42514   -42.01876    -0.41330     1.65822     0.03960     0.10295
  in kB     -19.88305   -21.19107    -0.20844     0.83628     0.01997     0.05192

 VOLUME and BASIS-vectors are now :
  energy-cutoff  :      500.00
  volume of cell :     3176.88
      direct lattice vectors                 reciprocal lattice vectors
    12.840787195  0.135356495 -0.001963619     0.077885586 -0.000828970  0.000013826
     0.131098686 12.317527545  0.011727566    -0.000855892  0.081194308 -0.000078287
    -0.003360047  0.019333195 20.087910162     0.000008113 -0.000047483  0.049781233

  length of vectors
    12.841500731 12.318230767 20.087919746     0.077889999  0.081198857  0.049781257

 FORCES acting on ions:
    Electron-Ion                     Ewald-Force                    Non-Local-Force
   -.314E+00 0.912E+01 -.167E+01   -.709E-01 -.903E+01 0.167E+01   0.333E+00 -.346E-01 -.107E-01
   0.347E+01 0.568E+01 -.190E+01   -.363E+01 -.576E+01 0.191E+01   0.136E+00 0.102E+00 -.115E-01
   -.644E+00 0.163E+01 -.120E+01   0.513E+00 -.165E+01 0.119E+01   0.133E+00 -.237E-01 0.291E-02
   0.127E+01 0.120E+02 -.144E+01   -.136E+01 -.123E+02 0.142E+01   0.905E-01 0.278E+00 0.104E-01
   0.111E+02 0.121E+02 -.148E+01   -.116E+02 -.122E+02 0.149E+01   0.459E+00 0.160E+00 -.219E-01
   0.854E+01 -.638E+00 -.146E+01   -.884E+01 0.298E+00 0.145E+01   0.312E+00 0.334E+00 0.581E-02
   0.562E+01 0.394E+01 -.227E+01   -.603E+01 -.399E+01 0.227E+01   0.408E+00 0.307E-01 -.120E-01
   0.319E+02 0.623E+01 0.211E+01   -.351E+02 -.667E+01 -.206E+01   0.320E+01 0.321E+00 -.434E-01
   0.198E+02 0.955E+01 0.155E+01   -.217E+02 -.125E+02 -.150E+01   0.197E+01 0.297E+01 -.447E-01
   0.377E+01 -.108E+02 -.305E+00   -.397E+01 0.109E+02 0.295E+00   0.201E+00 -.194E+00 0.115E-01
   0.132E+02 0.284E+01 -.449E+00   -.138E+02 -.319E+01 0.463E+00   0.553E+00 0.340E+00 -.126E-01
   -.112E+02 -.431E+02 -.167E+00   0.963E+01 0.461E+02 0.199E+00   0.149E+01 -.326E+01 -.377E-01
   -.165E+01 -.133E+01 0.114E+00   0.158E+01 0.157E+01 -.107E+00   0.519E-01 -.248E+00 -.156E-02
   -.279E+01 -.728E+01 -.314E+00   0.260E+01 0.771E+01 0.314E+00   0.221E+00 -.315E+00 0.777E-03
   0.368E+01 0.168E+02 -.657E+00   -.607E+01 -.165E+02 0.663E+00   0.262E+01 -.135E+00 -.925E-02
   -.152E+01 0.889E+01 -.455E+00   0.110E+01 -.905E+01 0.457E+00   0.330E+00 0.245E+00 -.166E-02
   -.111E+01 0.620E+01 0.148E+00   0.110E+01 -.614E+01 -.144E+00   -.428E-02 -.120E-01 0.857E-03
   -.749E+01 -.146E+01 0.304E+00   0.727E+01 0.152E+01 -.311E+00   0.230E+00 -.353E-01 0.112E-01
   0.580E+00 0.486E+01 -.105E+01   -.759E+00 -.474E+01 0.105E+01   0.183E+00 -.173E+00 0.433E-03
   -.280E+01 -.949E+00 0.233E-01   0.281E+01 0.133E+01 -.322E-01   0.496E-01 -.365E+00 0.796E-02
   -.768E+01 0.108E+02 -.105E+01   0.789E+01 -.112E+02 0.107E+01   -.195E+00 0.206E+00 -.188E-01
   -.141E+00 0.104E+02 -.102E+01   0.465E+00 -.103E+02 0.103E+01   -.375E+00 -.797E-01 -.112E-01
   -.177E+01 0.195E+01 -.905E-01   0.171E+01 -.174E+01 0.101E+00   -.160E-01 -.199E+00 -.118E-01
   -.890E+01 0.132E+01 0.111E+01   0.922E+01 -.904E+00 -.113E+01   -.273E+00 -.425E+00 0.234E-01
   -.302E+02 0.309E+02 0.156E+01   0.325E+02 -.335E+02 -.151E+01   -.232E+01 0.275E+01 -.519E-01
   -.215E+02 0.275E+02 -.131E+01   0.228E+02 -.300E+02 0.132E+01   -.161E+01 0.277E+01 -.286E-01
   0.305E+02 -.554E+01 -.490E+00   -.321E+02 0.831E+01 0.467E+00   0.208E+01 -.302E+01 0.267E-01
   -.672E+01 0.365E+01 -.888E+00   0.693E+01 -.323E+01 0.885E+00   -.194E+00 -.375E+00 0.194E-02
   -.163E+02 0.419E+01 -.761E+00   0.168E+02 -.194E+01 0.760E+00   -.906E+00 -.245E+01 -.260E-02
   0.580E+01 0.549E+00 0.227E+00   -.591E+01 0.236E+00 -.222E+00   0.233E-01 -.677E+00 -.480E-03
   0.333E+01 0.156E+01 0.346E+00   -.330E+01 -.157E+01 -.340E+00   -.842E-02 -.292E-01 -.622E-03
   0.153E-01 -.293E+01 -.478E+00   0.645E-01 0.299E+01 0.478E+00   -.200E-01 -.164E+00 -.800E-03
   0.849E+00 -.376E+01 0.597E+00   -.657E+00 0.423E+01 -.595E+00   -.161E+00 -.378E+00 0.377E-02
   0.334E+01 -.181E+01 -.882E+00   -.349E+01 0.178E+01 0.879E+00   0.154E+00 0.337E-01 0.414E-02
   0.477E+01 0.184E+01 -.150E+01   -.488E+01 -.198E+01 0.150E+01   0.134E+00 0.952E-01 0.368E-03
   -.156E+01 -.428E+01 -.376E+01   0.126E+01 0.414E+01 0.379E+01   0.474E+00 0.996E-02 -.442E-01
   0.361E+01 -.311E+00 -.181E+01   -.378E+01 0.665E+00 0.181E+01   0.115E+00 -.217E+00 0.235E-02
   0.524E+01 0.162E+00 -.172E+01   -.542E+01 -.404E+00 0.172E+01   0.161E+00 0.231E+00 -.935E-03
   0.387E+01 0.317E+01 -.192E+01   -.387E+01 -.347E+01 0.192E+01   0.531E-01 0.210E+00 0.478E-02
   0.397E+01 0.227E+02 -.322E+01   -.302E+01 -.255E+02 0.318E+01   -.108E+01 0.302E+01 0.321E-01
   -.564E+00 0.416E+01 -.125E+01   0.612E+00 -.434E+01 0.127E+01   -.827E-01 0.166E+00 -.109E-01
   -.455E+01 -.490E+01 -.991E+00   0.483E+01 0.519E+01 0.988E+00   -.328E+00 -.220E+00 0.518E-02
   -.977E+01 0.469E+01 -.140E+01   0.133E+02 -.452E+01 0.140E+01   -.367E+01 -.117E+00 0.158E-02
   -.107E+01 -.115E+02 -.249E+01   0.270E+01 0.133E+02 0.249E+01   -.162E+01 -.222E+01 0.584E-03
   -.581E+01 0.709E+00 0.184E+00   0.597E+01 -.406E+00 -.183E+00   -.114E+00 -.260E+00 0.272E-02
   -.318E-01 -.193E+01 0.682E+00   0.505E+00 0.201E+01 -.680E+00   -.431E+00 -.715E-01 0.685E-03
   0.269E+01 -.544E+01 0.873E+00   -.243E+01 0.584E+01 -.875E+00   -.193E+00 -.505E+00 0.937E-02
   -.482E+01 -.505E+01 0.359E+00   0.544E+01 0.541E+01 -.361E+00   -.569E+00 -.274E+00 0.387E-02
   -.250E+01 -.265E+01 0.791E+00   0.247E+01 0.284E+01 -.791E+00   0.160E-01 -.158E+00 0.607E-02
   -.470E+02 -.441E+02 0.328E+01   0.652E+02 0.435E+02 -.341E+01   -.178E+02 0.817E+00 0.135E+00
   -.368E+02 -.228E+02 0.948E+01   0.479E+02 0.421E+02 -.100E+02   -.104E+02 -.185E+02 0.519E+00
   -.263E+02 -.561E+02 -.113E+01   0.230E+02 0.698E+02 0.125E+01   0.346E+01 -.133E+02 -.115E+00
   -.626E+02 0.105E+03 -.182E+01   0.761E+02 -.127E+03 0.186E+01   -.130E+02 0.215E+02 -.430E-01
   0.633E+02 0.780E+02 -.279E+01   -.732E+02 -.962E+02 0.289E+01   0.940E+01 0.178E+02 -.970E-01
   0.864E+02 0.123E+01 -.635E+01   -.108E+03 -.778E+00 0.657E+01   0.209E+02 -.436E+00 -.209E+00
   -.210E+02 -.133E+03 0.384E+02   0.205E+02 0.128E+03 -.379E+02   -.952E+00 0.398E+01 -.527E+00
   0.356E+02 -.541E+02 -.783E+01   -.319E+02 0.529E+02 0.773E+01   -.284E+01 0.228E+01 0.165E+00
   0.981E+01 -.125E+02 0.369E+00   -.199E-12 0.284E-13 0.711E-14   -.920E+01 0.117E+02 -.379E+00

 POSITION                                       TOTAL-FORCE (eV/Angst)
      2.97264     12.33025     10.05969        -0.035669      0.054776     -0.004732
      0.68395      1.25076     10.05187        -0.007994      0.025682     -0.006855
      1.54325     12.33734     10.06001         0.006951     -0.049071     -0.002825
      3.53858      1.25256     10.04557         0.009850      0.000731     -0.008999
      2.81031      2.47643     10.04431        -0.014118      0.054727     -0.012239
      0.68938      3.71992     10.05188         0.024926      0.008139     -0.002476
      1.38667      2.48380     10.05160         0.019876     -0.022887     -0.008752
      3.52864      3.68897     10.02871         0.216847     -0.097054      0.004675
      2.84278      4.94088     10.03282         0.240634      0.151725      0.002559
      0.76789      6.19039     10.04971         0.013308     -0.113318      0.001814
      1.43363      4.93984     10.04571        -0.072829      0.021464     -0.000362
      2.99351      7.35593     10.04216        -0.036775     -0.454868     -0.007571
      0.84503      8.64197     10.05128        -0.011923     -0.010039      0.005399
      1.55291      7.40511     10.04828         0.044720      0.105953      0.000753
      3.78514      8.60410     10.04971         0.366451      0.187839     -0.003502
      3.01684      9.83863     10.05322        -0.067962      0.100341      0.000023
      0.84790     11.10163     10.05504        -0.012106      0.048407      0.004767
      1.57555      9.86148     10.05227         0.016705      0.013781      0.004511
      3.70133     11.09765     10.05690         0.017331     -0.064524     -0.001324
      7.11298      0.12106     10.04214         0.058591     -0.014435     -0.000317
      4.96200      1.29026     10.04193         0.002006     -0.131559     -0.008585
      5.82185     12.38377     10.05582        -0.064885      0.049316     -0.004269
      7.80502      1.38284     10.04237        -0.073827     -0.001983     -0.002334
      7.07786      2.61960     10.03713         0.037491     -0.041704      0.003274
      5.63569      2.56623     10.03018        -0.225169      0.293425     -0.001744
      7.79977      3.87792     10.04509        -0.375257      0.497232     -0.017695
      7.28246      9.94138     10.05580         0.590543     -0.425833      0.005052
      5.12812     11.11910     10.05619         0.000515      0.027330     -0.001500
      5.82711      9.86031     10.05482        -0.469907     -0.331013     -0.003969
      7.96025     11.20724     10.05367        -0.074068      0.077971      0.004895
     11.39500      0.16676     10.04322         0.023209     -0.034450      0.005416
      9.23851      1.41364     10.04608         0.057519     -0.113135     -0.000391
      9.96076      0.17540     10.04233         0.021270      0.062668      0.006452
     12.09738      1.40112     10.04868         0.013529     -0.005434      0.001665
     11.38264      2.64251     10.05274         0.028230     -0.032032      0.004019
      9.24595      3.91535     10.05800         0.196980     -0.138700     -0.015983
      9.95088      2.66448     10.05302        -0.046994      0.125144     -0.000299
     12.09995      3.87422     10.05434        -0.010449      0.000237      0.000057
     11.41057      5.12557     10.05765         0.053524     -0.077165     -0.000502
      9.96940      5.17590     10.06219        -0.184183      0.328475     -0.005273
     12.18893      6.33423     10.05466        -0.042496      0.011183      0.001165
     11.50318      7.57626     10.05622        -0.065948      0.042478      0.001961
      9.39762      8.81695     10.05901        -0.344367      0.048111      0.000037
     10.08976      7.57314     10.06216        -0.082135     -0.508919     -0.005135
     12.25140      8.79389     10.05173         0.027849      0.033191      0.003916
     11.54705     10.02412     10.05154         0.024399      0.005391      0.002718
      9.39188     11.25287     10.05238         0.063063     -0.134099      0.007898
     10.11909     10.02960     10.05353         0.007312      0.074000      0.002707
     12.25599     11.25436     10.05198        -0.011531      0.013365      0.006273
      3.59929      6.11257     10.02687        -1.084314      0.293426      0.009803
      4.90267      3.71824     10.01238        -0.283178     -0.871311      0.025995
      7.16150      5.05275     10.03806         0.427635     -0.753960     -0.001344
      5.18679      8.62800     10.05264        -0.523891      0.840797     -0.002037
      8.01319      8.77719     10.06020         0.389120      1.192675     -0.011334
      9.31798      6.40996     10.06753         1.132907     -0.023831     -0.008744
      5.44040      5.61841      9.98043        -0.583950     -0.612091      0.006048
      7.30433      6.91591     10.06228         0.672637      0.273439      0.027234
    total drift:                                0.001916      0.008281     -0.002450

  FREE ENERGIE OF THE ION-ELECTRON SYSTEM (eV)
  free  energy   TOTEN  =      -600.90483692 eV

  energy  without entropy=     -600.89827964  energy(sigma->0) =     -600.90155828

 stress matrix after NEB project (eV)
    -39.42514      1.65853      0.10295
      1.65822    -42.01876      0.03982
      0.10258      0.03960     -0.41330
  FORCES: max atom, RMS     1.254598    0.431841
  FORCE total and by dimension    3.260331    1.192675
  Stress total and by dimension   57.668127   42.018757
 writing wavefunctions

 total charge

[...]

 magnetization (x)

# of ion       s       p       d       tot
    1        0.000   0.006   0.000   0.006
    2       -0.000  -0.005   0.000  -0.005
    3        0.001   0.009   0.000   0.009
    4       -0.001  -0.009   0.000  -0.010
    5        0.000  -0.001   0.000  -0.000
    6        0.000   0.001   0.000   0.001
    7        0.000   0.004   0.000   0.004
    8       -0.000   0.002   0.000   0.002
    9        0.001   0.003   0.000   0.005
   10       -0.000  -0.004   0.000  -0.004
   11       -0.000  -0.003   0.000  -0.003
   12        0.001   0.010   0.000   0.011
   13        0.000   0.002   0.000   0.002
   14        0.000  -0.000   0.000   0.000
   15        0.000   0.008   0.000   0.008
   16       -0.000  -0.006   0.000  -0.006
   17       -0.000  -0.004   0.000  -0.005
   18        0.000   0.005   0.000   0.006
   19       -0.000  -0.002   0.000  -0.003
   20        0.001   0.016   0.000   0.018
   21        0.001   0.008   0.000   0.009
   22       -0.000  -0.005   0.000  -0.005
   23       -0.001  -0.007   0.000  -0.008
   24        0.003   0.019   0.000   0.021
   25       -0.002  -0.021   0.000  -0.023
   26       -0.002  -0.029   0.000  -0.031
   27       -0.000   0.000   0.000  -0.000
   28        0.001   0.001   0.000   0.002
   29       -0.001  -0.010   0.000  -0.011
   30        0.000   0.000   0.000   0.000
   31       -0.001  -0.008   0.000  -0.008
   32        0.000   0.005   0.000   0.005
   33        0.001   0.005   0.000   0.006
   34        0.000   0.004   0.000   0.004
   35       -0.001  -0.011   0.000  -0.012
   36        0.002   0.014   0.000   0.016
   37       -0.000  -0.004   0.000  -0.004
   38        0.000   0.004   0.000   0.005
   39       -0.000  -0.005   0.000  -0.005
   40       -0.001  -0.010   0.000  -0.010
   41       -0.000  -0.007   0.000  -0.007
   42        0.001   0.010   0.000   0.010
   43       -0.002  -0.035   0.000  -0.037
   44        0.000  -0.002   0.000  -0.001
   45        0.000   0.007   0.000   0.008
   46       -0.001  -0.007   0.000  -0.007
   47       -0.001  -0.018   0.000  -0.019
   48        0.001   0.009   0.000   0.010
   49        0.000   0.004   0.000   0.005
   50       -0.004  -0.001   0.000  -0.005
   51        0.013   0.062   0.000   0.075
   52        0.009   0.104   0.000   0.113
   53        0.009   0.062   0.000   0.071
   54        0.004   0.021   0.000   0.025
   55        0.004  -0.007   0.000  -0.004
   56        0.064   0.028   3.080   3.172
   57       -0.085  -0.031  -2.195  -2.310
tot          0.016   0.184   0.885   1.085