 vasp.5.4.4.18Apr17-6-g9f103f2a35 (build Feb 25 2019 10:51:38) complex

 executed on             LinuxIFC date 2021.07.24  11:06:47

 INCAR:
 POTCAR:    PAW_PBE C 08Apr2002
 POTCAR:    PAW_PBE N 08Apr2002
 POTCAR:    PAW_PBE Fe 06Sep2000

 POTCAR:    PAW_PBE C 08Apr2002
   VRHFIN =C: s2p2

   TITEL  = PAW_PBE C 08Apr2002
   POMASS =   12.011; ZVAL   =    4.000    mass and valenz
   ENMAX  =  400.000; ENMIN  =  300.000 eV

 POTCAR:    PAW_PBE N 08Apr2002
   VRHFIN =N: s2p3

   TITEL  = PAW_PBE N 08Apr2002
   POMASS =   14.001; ZVAL   =    5.000    mass and valenz
   ENMAX  =  400.000; ENMIN  =  300.000 eV

 POTCAR:    PAW_PBE Fe 06Sep2000
   VRHFIN =Fe:  d7 s1

   TITEL  = PAW_PBE Fe 06Sep2000
   POMASS =   55.847; ZVAL   =    8.000    mass and valenz
   ENMAX  =  267.882; ENMIN  =  200.911 eV

  PAW_PBE C 08Apr2002                   :
  PAW_PBE N 08Apr2002                   :
  PAW_PBE Fe 06Sep2000                  :

 POSCAR:  C  N Fe
  positions in cartesian coordinates
 exchange correlation table for  LEXCH =        8
   RHO(1)=    0.500       N(1)  =     2000
   RHO(2)=  100.500       N(2)  =     4000

 VTST: version 3.2, (02/03/18)

 CHAIN: initializing optimizer

 OPT: Using VASP Conjugate-Gradient optimizer
 CHAIN: Read ICHAIN            0

 POSCAR:  C  N Fe
  positions in cartesian coordinates

 ion  position               nearest neighbor table
   1  0.221  0.998  0.500-   3 1.41  17 1.42   4 1.42
   2  0.054  0.098  0.500-  34 1.41   7 1.42   3 1.44
   3  0.110  0.998  0.500-   1 1.41  15 1.43   2 1.44
   4  0.276  0.096  0.500-  19 1.41   5 1.41   1 1.42
   5  0.220  0.194  0.500-   7 1.41   8 1.41   4 1.41
   6  0.055  0.297  0.500-  38 1.41   7 1.43  10 1.44
   7  0.109  0.196  0.500-   5 1.41   2 1.42   6 1.43
   8  0.275  0.291  0.500-  55 1.39  51 1.41   5 1.41  57 2.54
   9  0.062  0.499  0.500-  42 1.44  10 1.46  12 1.46
  10  0.114  0.395  0.500-  55 1.34   6 1.44   9 1.46
  11  0.060  0.699  0.500-  46 1.42  16 1.43  12 1.45
  12  0.119  0.599  0.499-  56 1.39  11 1.45   9 1.46
  13  0.278  0.702  0.500-  56 1.38  14 1.41  25 1.42
  14  0.223  0.801  0.500-  16 1.41  13 1.41  17 1.43
  15  0.055  0.899  0.500-  50 1.41   3 1.43  16 1.43
  16  0.112  0.800  0.500-  14 1.41  11 1.43  15 1.43
  17  0.278  0.900  0.500-  28 1.41   1 1.42  14 1.43
  18  0.556  0.000  0.500-  20 1.41  30 1.43  21 1.43
  19  0.388  0.099  0.500-   4 1.41  20 1.43  23 1.44
  20  0.444  1.000  0.500-  18 1.41  28 1.43  19 1.43
  21  0.610  0.100  0.500-  32 1.41  22 1.43  18 1.43
  22  0.554  0.199  0.500-  52 1.42  21 1.43  23 1.44
  23  0.441  0.200  0.500-  51 1.43  19 1.44  22 1.44
  24  0.556  0.604  0.500-  53 1.42  26 1.44  54 1.45  58 2.42
  25  0.390  0.701  0.500-  13 1.42  54 1.43  29 1.43
  26  0.612  0.703  0.500-  44 1.42  27 1.42  24 1.44
  27  0.556  0.802  0.500-  29 1.42  26 1.42  30 1.43
  28  0.389  0.900  0.500-  17 1.41  20 1.43  29 1.43
  29  0.445  0.801  0.500-  27 1.42  28 1.43  25 1.43
  30  0.611  0.901  0.500-  48 1.42  18 1.43  27 1.43
  31  0.888  0.999  0.500-  33 1.41  34 1.43  50 1.44
  32  0.721  0.101  0.500-  21 1.41  37 1.43  33 1.44
  33  0.777  0.000  0.500-  31 1.41  48 1.43  32 1.44
  34  0.942  0.099  0.500-   2 1.41  31 1.43  35 1.44
  35  0.887  0.200  0.500-  37 1.42  38 1.44  34 1.44
  36  0.717  0.302  0.501-  52 1.42  37 1.46  41 1.46
  37  0.775  0.201  0.500-  35 1.42  32 1.43  36 1.46
  38  0.944  0.299  0.500-   6 1.41  35 1.44  39 1.44
  39  0.890  0.400  0.500-  41 1.42  38 1.44  42 1.46
  40  0.724  0.503  0.500-  53 1.39  45 1.43  41 1.44
  41  0.778  0.401  0.500-  39 1.42  40 1.44  36 1.46
  42  0.949  0.499  0.500-   9 1.44  43 1.44  39 1.46
  43  0.893  0.600  0.500-  45 1.42  46 1.43  42 1.44
  44  0.724  0.701  0.500-  26 1.42  49 1.43  45 1.44
  45  0.781  0.601  0.500-  43 1.42  40 1.43  44 1.44
  46  0.948  0.699  0.500-  11 1.42  43 1.43  47 1.45
  47  0.891  0.799  0.500-  49 1.42  50 1.43  46 1.45
  48  0.723  0.900  0.500-  30 1.42  33 1.43  49 1.44
  49  0.779  0.800  0.500-  47 1.42  44 1.43  48 1.44
  50  0.944  0.899  0.500-  15 1.41  47 1.43  31 1.44
  51  0.386  0.299  0.500-   8 1.41  23 1.43  58 2.10  57 2.43
  52  0.605  0.300  0.501-  22 1.42  36 1.42  58 2.00
  53  0.615  0.508  0.500-  40 1.39  24 1.42  58 1.83
  54  0.442  0.599  0.501-  25 1.43  24 1.45  57 2.01  58 2.37
  55  0.220  0.387  0.500-  10 1.34   8 1.39  57 1.87
  56  0.229  0.605  0.499-  13 1.38  12 1.39  57 1.98
  57  0.331  0.485  0.500-  55 1.87  56 1.98  54 2.01  58 2.30  51 2.43   8 2.54
  58  0.500  0.420  0.502-  53 1.83  52 2.00  51 2.10  57 2.30  54 2.37  24 2.42

  LATTYP: Found a triclinic cell.
 ALAT       =    34.4663906621
 B/A-ratio  =     0.3641489509
 C/A-ratio  =     0.5795442928
 COS(alpha) =     0.0000558505
 COS(beta)  =     0.5798833554
 COS(gamma) =     0.7270545882

  Lattice vectors:

 A1 = (  12.6011152025, -25.1028207590, -19.9747933873)
 A2 = (  -0.0435479530, -12.5508244504,   0.0000000000)
 A3 = (   0.0162111085,  -0.0011718581, -19.9747933873)

Analysis of symmetry for initial positions (statically):
 Subroutine PRICEL returns:
 Original cell was already a primitive cell.

 Routine SETGRP: Setting up the symmetry group for a
 triclinic supercell.

 Subroutine GETGRP returns: Found  1 space group operations
 (whereof  1 operations were pure point group operations)
 out of a pool of  2 trial point group operations.

The static configuration has the point symmetry C_1 .

Analysis of symmetry for dynamics (positions and initial velocities):
 Subroutine PRICEL returns:
 Original cell was already a primitive cell.

[...]

The dynamic configuration has the point symmetry C_1 .

Analysis of structural, dynamic, and magnetic symmetry:
 Subroutine PRICEL returns:
 Original cell was already a primitive cell.

 Routine SETGRP: Setting up the symmetry group for a
 triclinic supercell.

 Subroutine GETGRP returns: Found  1 space group operations
 (whereof  1 operations were pure point group operations)
 out of a pool of  2 trial point group operations.

The magnetic configuration has the point symmetry C_1 .

 Subroutine INISYM returns: Found  1 space group operations
 (whereof  1 operations are pure point group operations),
 and found     1 'primitive' translations

 KPOINTS: KPOINTS created by Atomic Simulation Env

Automatic generation of k-mesh.
Space group operators:
 irot       det(A)        alpha          n_x          n_y          n_z        tau_x        tau_y        tau_z
    1     1.000000     0.000000     1.000000     0.000000     0.000000     0.000000     0.000000     0.000000

 Subroutine IBZKPT returns following result:

 Found      2 irreducible k-points:

 Following reciprocal coordinates:
            Coordinates               Weight
  0.250000  0.250000 -0.000000      2.000000
 -0.250000  0.250000  0.000000      2.000000

 Following cartesian coordinates:
            Coordinates               Weight
  0.019729  0.019851  0.000015      2.000000
 -0.019729  0.019987 -0.000017      2.000000

 Subroutine IBZKPT_HF returns following result:

 Found      4 k-points in 1st BZ
 the following      4 k-points will be used (e.g. in the exchange kernel)
 Following reciprocal coordinates:   # in IRBZ
  0.250000  0.250000 -0.000000    0.25000000   1 t-inv F
 -0.250000  0.250000  0.000000    0.25000000   2 t-inv F
 -0.250000 -0.250000  0.000000    0.25000000   1 t-inv T
  0.250000 -0.250000 -0.000000    0.25000000   2 t-inv T

 SYSTEM =  unknown system
 POSCAR =   C  N Fe

 Startparameter for this run:
   NWRITE =      2    write-flag & timer
   PREC   = accura    normal or accurate (medium, high low for compatibility)
   ISTART =      1    job   : 0-new  1-cont  2-samecut
   ICHARG =      0    charge: 1-file 2-atom 10-const
   ISPIN  =      2    spin polarized calculation?
   LNONCOLLINEAR =      F non collinear calculations
   LSORBIT =      F    spin-orbit coupling
   INIWAV =      1    electr: 0-lowe 1-rand  2-diag
   LASPH  =      T    aspherical Exc in radial PAW
   METAGGA=      F    non-selfconsistent MetaGGA calc.

 Electronic Relaxation 1
   ENCUT  =  500.0 eV  36.75 Ry    6.06 a.u.  23.10 22.88 36.42*2*pi/ulx,y,z
   ENINI  =  500.0     initial cutoff
   ENAUG  =  644.9 eV  augmentation charge cutoff
   NELM   =    250;   NELMIN=  2; NELMDL=  0     # of ELM steps
   EDIFF  = 0.1E-03   stopping-criterion for ELM
   LREAL  =      F    real-space projection
   NLSPLINE    = F    spline interpolate recip. space projectors
   LCOMPAT=      F    compatible to vasp.4.4
   GGA_COMPAT  = T    GGA compatible to vasp.4.4-vasp.4.6
   LMAXPAW     = -100 max onsite density
   LMAXMIX     =    2 max onsite mixed and CHGCAR
   VOSKOWN=      0    Vosko Wilk Nusair interpolation
   ROPT   =    0.00000   0.00000   0.00000
 Ionic relaxation
   EDIFFG = -.3E-01   stopping-criterion for IOM
   NSW    =      0    number of steps for IOM
   NBLOCK =      1;   KBLOCK =      1    inner block; outer block
   IBRION =     -1    ionic relax: 0-MD 1-quasi-New 2-CG
   NFREE  =      1    steps in history (QN), initial steepest desc. (CG)
   ISIF   =      2    stress and relaxation
   IWAVPR =     10    prediction:  0-non 1-charg 2-wave 3-comb
   ISYM   =      3    0-nonsym 1-usesym 2-fastsym
   LCORR  =      T    Harris-Foulkes like correction to forces

   POTIM  = 0.5000    time-step for ionic-motion
   TEIN   =    0.0    initial temperature
   TEBEG  =    0.0;   TEEND  =   0.0 temperature during run
   SMASS  =  -3.00    Nose mass-parameter (am)
   estimated Nose-frequenzy (Omega)   =  0.10E-29 period in steps =****** mass=  -0.367E-26a.u.
   SCALEE = 1.0000    scale energy and forces
   NPACO  =    256;   APACO  = 16.0  distance and # of slots for P.C.
   PSTRESS=    0.0 pullay stress

  Mass of Ions in am
   POMASS =  12.01 14.00 55.85
  Ionic Valenz
   ZVAL   =   4.00  5.00  8.00
  Atomic Wigner-Seitz radii
  virtual crystal weights
   VCA    =   1.00  1.00  1.00
   NELECT =     242.0000    total number of electrons
   NUPDOWN=      -1.0000    fix difference up-down

 DOS related values:
   EMIN   =  10.00;   EMAX   =-10.00  energy-range for DOS
   EFERMI =   0.00
   ISMEAR =     0;   SIGMA  =   0.10  broadening in eV -4-tet -1-fermi 0-gaus

 Electronic relaxation 2 (details)
   IALGO  =     53    algorithm
   LDIAG  =      T    sub-space diagonalisation (order eigenvalues)
   LSUBROT=      F    optimize rotation matrix (better conditioning)
   TURBO    =      0    0=normal 1=particle mesh
   IRESTART =      0    0=no restart 2=restart with 2 vectors
   NREBOOT  =      0    no. of reboots
   NMIN     =      0    reboot dimension
   EREF     =   0.00    reference energy to select bands
   IMIX   =      4    mixing-type and parameters
     AMIX     =   0.40;   BMIX     =  1.00
     AMIX_MAG =   1.60;   BMIX_MAG =  1.00
     AMIN     =   0.10
     WC   =   100.;   INIMIX=   1;  MIXPRE=   1;  MAXMIX= -45

 Intra band minimization:
   WEIMIN = 0.0000     energy-eigenvalue tresh-hold
   EBREAK =  0.16E-06  absolut break condition
   DEPER  =   0.30     relativ break condition

   TIME   =   0.20     timestep for ELM

  volume/ion in A,a.u.               =      54.77       369.63
[...]
   33        0.868   1.767   0.000   2.635
   34        0.868   1.763   0.000   2.631
   35        0.863   1.762   0.000   2.625
   36        0.857   1.728   0.000   2.585
   37        0.864   1.747   0.000   2.611
   38        0.867   1.762   0.000   2.629
   39        0.859   1.755   0.000   2.614
   40        0.868   1.786   0.000   2.654
   41        0.867   1.729   0.000   2.596
   42        0.859   1.723   0.000   2.581
   43        0.864   1.769   0.000   2.633
   44        0.865   1.767   0.000   2.632
   45        0.867   1.756   0.000   2.623
   46        0.865   1.757   0.000   2.622
   47        0.864   1.769   0.000   2.633
   48        0.866   1.770   0.000   2.636
   49        0.867   1.764   0.000   2.631
   50        0.868   1.769   0.000   2.637
   51        0.857   1.675   0.000   2.533
   52        0.871   1.639   0.000   2.510
   53        0.890   1.716   0.000   2.606
   54        0.863   1.639   0.000   2.502
   55        1.238   2.717   0.000   3.955
   56        1.231   2.653   0.000   3.883
   57        0.442   0.555   6.271   7.268
   58        0.495   0.570   6.288   7.354
tot         50.230 101.406  12.559 164.195

 magnetization (x)

[...]

  FORCE on cell =-STRESS in cart. coord.  units (eV):
  Direction    XX          YY          ZZ          XY          YZ          ZX
  Alpha Z   100.92222   100.92222   100.92222
  Ewald   47134.57222 46935.17721-55454.36029    15.07209    -0.37383     2.26331
  Hartree 46382.02276 46344.98668-45881.86675    12.20333    -0.51059     2.74950
  E(xc)    -701.85819  -702.03498  -715.33206    -0.22838    -0.02909    -0.03490
  Local  -96062.69677-95860.91699 98317.45743   -31.76596     0.61466    -5.42474
  n-local  -142.11364  -140.51826  -126.81680     1.53368    -0.15764     0.06286
  augment    46.33058    50.86601    51.06229    -0.24168     0.45350     0.35844
  Kinetic  3554.12584  3542.67876  4012.02667    11.53673     0.35643     0.48811
  Fock     -322.42762  -327.35577  -303.38400     0.87973    -0.34132    -0.38830
  Total     -11.12259   -56.19514    -0.29129     8.98954     0.01211     0.07428
  in kB      -5.60941   -28.34064    -0.14691     4.53365     0.00611     0.03746

 VOLUME and BASIS-vectors are now :
  energy-cutoff  :      500.00
  volume of cell :     3176.87
      direct lattice vectors                 reciprocal lattice vectors
    12.672000000  0.000000000  0.000000000     0.078914141 -0.000273811  0.000064061
     0.043547953 12.550824450  0.000000000     0.000000000  0.079676041 -0.000004674
    -0.016211108  0.001171858 19.974793387     0.000000000  0.000000000  0.050063096

  length of vectors
    12.672000000 12.550900000 19.974800000     0.078914642  0.079676041  0.050063096

 FORCES acting on ions:
    Electron-Ion                     Ewald-Force                    Non-Local-Force
   -.143E+01 0.951E+00 -.139E+01   0.147E+01 -.885E+00 0.138E+01   -.835E-01 -.102E+00 -.461E-02
   0.215E+01 0.425E+01 -.370E+00   -.237E+01 -.434E+01 0.375E+00   0.163E+00 0.114E+00 -.105E-01
   0.832E+01 -.130E+01 -.185E+01   -.824E+01 0.134E+01 0.185E+01   0.253E-02 -.513E-01 -.757E-02
   -.888E+00 0.614E+01 0.140E+00   0.142E+01 -.619E+01 -.134E+00   -.443E+00 0.122E+00 -.962E-02
   -.415E+00 0.128E+02 0.281E+01   0.732E+00 -.131E+02 -.282E+01   -.292E+00 0.252E+00 0.305E-01
   0.118E+02 -.469E+00 0.263E+01   -.125E+02 0.993E-01 -.264E+01   0.576E+00 0.319E+00 0.131E-01
   0.145E+02 0.369E+01 0.187E+01   -.146E+02 -.390E+01 -.187E+01   0.103E+00 0.192E+00 0.964E-03
   -.173E+02 0.335E+02 0.175E+01   0.212E+02 -.373E+02 -.167E+01   -.367E+01 0.366E+01 -.520E-01
   0.659E+01 -.321E+01 0.276E+01   -.692E+01 0.333E+01 -.277E+01   0.228E+00 -.557E-01 0.191E-01
   0.530E+02 -.149E+02 0.262E+01   -.567E+02 0.152E+02 -.267E+01   0.405E+01 -.365E+00 0.666E-01
   0.817E+01 0.449E+01 0.109E+01   -.867E+01 -.438E+01 -.109E+01   0.390E+00 -.102E+00 0.282E-02
   0.394E+02 0.105E+02 0.286E+01   -.428E+02 -.108E+02 -.284E+01   0.352E+01 0.351E+00 -.161E-02
   -.121E+02 -.300E+02 0.985E+00   0.146E+02 0.328E+02 -.952E+00   -.258E+01 -.297E+01 -.283E-01
   -.191E+01 -.113E+02 -.365E+00   0.190E+01 0.119E+02 0.367E+00   -.318E-01 -.513E+00 -.354E-02
   0.128E+00 0.431E+00 -.205E+01   -.343E+00 -.202E+00 0.205E+01   0.173E+00 -.204E+00 -.198E-01
   0.135E+02 -.462E+01 -.568E+00   -.138E+02 0.485E+01 0.560E+00   0.265E+00 -.252E+00 0.297E-02
   0.859E+00 -.162E+01 -.123E+01   -.483E+00 0.190E+01 0.124E+01   -.361E+00 -.260E+00 -.152E-01
   -.693E+01 -.296E+01 0.143E+01   0.706E+01 0.315E+01 -.143E+01   -.140E+00 -.236E+00 0.214E-02
   -.123E+02 0.111E+00 -.526E+00   0.127E+02 0.461E+00 0.523E+00   -.440E+00 -.539E+00 -.445E-02
   0.146E+00 -.202E+01 0.143E+00   0.125E-01 0.221E+01 -.131E+00   -.119E+00 -.199E+00 -.852E-02
   0.204E+01 -.246E+01 0.852E+00   -.230E+01 0.308E+01 -.849E+00   0.288E+00 -.561E+00 0.503E-02
   -.523E+01 -.189E+01 -.978E+00   0.575E+01 0.325E+01 0.951E+00   -.304E+00 -.127E+01 0.383E-01
   -.830E+01 -.203E+00 -.468E+00   0.827E+01 0.148E+01 0.394E+00   -.119E+00 -.109E+01 0.710E-01
   -.249E+01 -.112E+02 -.508E+00   0.245E+01 0.115E+02 0.628E+00   0.257E+00 0.812E-01 -.161E+00
   -.171E+02 -.651E+01 -.246E+00   0.183E+02 0.531E+01 0.217E+00   -.111E+01 0.106E+01 0.380E-01
   -.153E+01 0.910E+00 0.239E+01   0.124E+01 -.131E+01 -.244E+01   0.314E+00 0.472E+00 0.572E-01
   -.586E+01 -.192E+01 0.181E+01   0.593E+01 0.184E+01 -.180E+01   -.702E-01 0.500E-01 -.102E-02
   -.756E+01 -.218E+01 0.138E+00   0.789E+01 0.225E+01 -.148E+00   -.300E+00 -.605E-01 0.949E-02
   -.677E+00 -.798E+00 0.564E+00   0.597E+00 0.545E+00 -.568E+00   0.126E+00 0.274E+00 0.307E-02
   0.247E+00 -.140E+01 0.242E+01   -.355E+00 0.157E+01 -.242E+01   0.114E+00 -.115E+00 0.774E-02
   -.361E+01 0.883E+00 0.159E+00   0.336E+01 -.839E+00 -.154E+00   0.161E+00 -.257E-01 -.610E-02
   -.687E+01 -.223E+01 0.112E+01   0.664E+01 0.261E+01 -.111E+01   0.151E+00 -.308E+00 -.427E-02
   0.699E+01 -.364E+01 0.185E+01   -.710E+01 0.379E+01 -.185E+01   0.181E+00 -.178E+00 0.109E-01
   0.110E+02 -.317E+01 0.288E+00   -.111E+02 0.332E+01 -.289E+00   0.217E+00 -.119E+00 0.131E-02
   0.200E+01 -.182E+01 0.105E+01   -.247E+01 0.189E+01 -.106E+01   0.459E+00 -.666E-01 0.133E-01
   -.702E-01 -.100E+02 -.177E+01   -.160E+01 0.999E+01 0.181E+01   0.155E+01 -.161E+00 -.376E-01
   0.702E+01 -.852E+01 0.328E+00   -.754E+01 0.912E+01 -.327E+00   0.512E+00 -.584E+00 0.157E-02
   0.148E+02 -.297E+01 0.129E+01   -.152E+02 0.300E+01 -.128E+01   0.452E+00 -.925E-01 -.481E-02
   -.103E+00 -.398E+01 0.165E+00   -.511E+00 0.398E+01 -.164E+00   0.483E+00 0.166E-02 -.279E-02
   -.910E+01 0.133E+02 -.911E+00   0.859E+01 -.135E+02 0.875E+00   0.467E+00 0.273E+00 -.360E-02
   0.117E+02 0.657E+01 -.197E+01   -.125E+02 -.678E+01 0.201E+01   0.871E+00 0.227E+00 -.443E-01
   0.738E+01 0.341E+01 0.109E+01   -.753E+01 -.346E+01 -.109E+01   0.156E+00 0.706E-01 -.970E-03
   -.186E+01 0.581E+01 0.467E+00   0.155E+01 -.586E+01 -.467E+00   0.272E+00 0.741E-01 0.209E-02
   -.608E+01 0.344E+01 0.162E+01   0.583E+01 -.365E+01 -.162E+01   0.159E+00 0.227E+00 0.282E-02
   0.696E+00 0.753E+00 -.784E-02   -.958E+00 -.124E+01 -.189E-01   0.258E+00 0.398E+00 0.993E-02
   0.778E+01 -.897E+00 0.499E+00   -.812E+01 0.729E+00 -.500E+00   0.366E+00 0.124E+00 0.114E-03
   -.265E+01 0.473E+01 0.156E+00   0.248E+01 -.471E+01 -.153E+00   0.119E+00 0.221E-01 -.773E-02
   -.594E+01 0.972E+00 0.256E+01   0.585E+01 -.958E+00 -.256E+01   0.532E-01 -.501E-02 0.968E-02
   0.342E+01 -.112E+01 0.169E+01   -.353E+01 0.104E+01 -.168E+01   0.126E+00 0.856E-01 0.205E-03
   0.931E+01 -.235E+01 -.787E+00   -.946E+01 0.235E+01 0.775E+00   0.174E+00 -.326E-01 0.650E-03
   -.403E+02 -.259E+02 -.802E+00   0.441E+02 0.312E+02 0.890E+00   -.411E+01 -.535E+01 -.946E-01
   0.355E+01 -.355E+02 -.371E+01   -.724E+01 0.413E+02 0.370E+01   0.372E+01 -.577E+01 -.380E-01
   -.161E+02 0.281E+02 0.307E+01   0.136E+02 -.342E+02 -.283E+01   0.218E+01 0.625E+01 -.718E-01
   0.114E+01 0.189E+02 -.437E+01   -.506E+01 -.248E+02 0.446E+01   0.447E+01 0.595E+01 -.964E-01
   0.461E+01 -.284E+02 -.176E+01   0.550E+01 0.429E+02 0.205E+01   -.971E+01 -.138E+02 -.316E+00
   -.186E+01 0.361E+02 0.530E+01   0.128E+02 -.528E+02 -.553E+01   -.105E+02 0.158E+02 0.239E+00
   -.361E+02 -.500E+01 -.147E+00   0.341E+02 0.953E+01 0.134E+00   0.740E+00 -.399E+01 0.146E-01
   -.886E+01 0.321E+02 -.251E+02   0.140E+02 -.396E+02 0.247E+02   -.464E+01 0.621E+01 0.404E+00
   0.108E+02 -.355E+01 0.780E-02   0.341E-12 -.142E-13 0.107E-13   -.101E+02 0.327E+01 0.213E-01

 POSITION                                       TOTAL-FORCE (eV/Angst)
      2.84104     12.52071      9.99251        -0.054085     -0.041414     -0.010948
      0.67696      1.22649      9.98783        -0.050158      0.032532     -0.006664
      1.42829     12.52782      9.99307         0.088448     -0.013031     -0.015771
      3.49879      1.20827      9.98870         0.065998      0.078403     -0.004432
      2.78716      2.43034      9.98189         0.007830     -0.019643      0.018861
      0.70009      3.72597      9.97895        -0.105113     -0.034756      0.008944
      1.37961      2.46363      9.98162         0.052700     -0.012537      0.006533
      3.48998      3.65577      9.98689        -0.052826      0.084415      0.027647
      0.80546      6.25765      9.97749        -0.097521      0.051560      0.009397
      1.45745      4.95377      9.97985         0.509764     -0.111795      0.020009
      0.77926      8.76800      9.98264        -0.098464      0.009550      0.006140
      1.53044      7.52445      9.97720         0.310844      0.096425      0.018286
      3.54235      8.81607      9.98488        -0.199856     -0.357024      0.004046
      2.84998     10.04906      9.98877        -0.047023      0.046342     -0.001729
      0.73418     11.28064      9.99286        -0.043351      0.017819     -0.017354
      1.44079     10.03603      9.98868         0.086245     -0.040652     -0.005617
      3.55254     11.29080      9.99168         0.002153      0.006232     -0.004310
      7.03405      0.00183      9.98364        -0.032528     -0.059502      0.004474
      4.90953      1.24080      9.99128        -0.095223      0.006318     -0.007085
      5.66416     12.54685      9.98800         0.041570     -0.022242      0.002312
      7.72493      1.25697      9.98732         0.048732      0.031342      0.008805
      7.02573      2.50280      9.99663         0.193605      0.041413      0.012613
      5.58500      2.50847      9.99471        -0.148518      0.135433      0.000213
      7.05853      7.58033      9.99478         0.223086      0.332112     -0.048422
      4.96587      8.79530      9.99066         0.046955     -0.098077      0.011317
      7.77813      8.82567      9.98263         0.037662      0.090579      0.002354
      7.07876     10.06390      9.98184        -0.006114     -0.032038      0.004934
      4.96635     11.29833      9.98819         0.008005      0.001169      0.000029
      5.66303     10.04895      9.98658         0.060147      0.036063     -0.001050
      7.77824     11.30923      9.97919         0.017907      0.049060      0.009202
     11.29154     12.54318      9.98572        -0.094173      0.021011     -0.001610
      9.13870      1.26383      9.98496        -0.080311      0.059953      0.003687
      9.83913      0.00426      9.98112         0.094241     -0.038959      0.009790
     11.93652      1.24749      9.98599         0.084208      0.014868      0.000941
     11.24162      2.51064      9.98464         0.006173     -0.001955      0.005473
      9.09704      3.78928      9.99824        -0.048651     -0.184777     -0.005561
      9.81978      2.52626      9.98864         0.025526     -0.018818      0.002052
     11.96207      3.75369      9.98286         0.077750     -0.067031      0.002093
     11.28199      5.02349      9.98717        -0.116006     -0.007685     -0.001283
      9.19033      6.30915      9.99366        -0.037159      0.153150     -0.041145
      9.86317      5.03303      9.99589         0.097590      0.034354     -0.012868
     12.04062      6.26947      9.98262         0.017699      0.029777      0.000639
     11.33179      7.52676      9.98477        -0.034735      0.031425      0.001422
      9.19814      8.79767      9.98240        -0.097365      0.036696     -0.000481
      9.91193      7.54633      9.98761         0.014695     -0.080057     -0.016508
     12.03045      8.77315      9.98411         0.058281     -0.043938     -0.000964
     11.31651     10.03035      9.98505        -0.059788      0.054853     -0.005016
      9.19461     11.29924      9.97818        -0.050871      0.012718      0.013965
      9.89916     10.04510      9.98067         0.039751      0.005518      0.004349
     11.99572     11.28728      9.98875         0.045674     -0.047951     -0.010709
      4.89205      3.75674      9.99712        -0.544308     -0.322051     -0.011781
      7.67232      3.76523     10.00689         0.220351     -0.298473     -0.049544
      7.80541      6.37191      9.99251        -0.196863      0.481876      0.166860
      5.61366      7.51725     10.00347         0.786892      0.366224     -0.015034
      2.79791      4.85840      9.99050        -0.432172     -0.503781     -0.052009
      2.91555      7.58829      9.97678        -0.441937      0.515202      0.027674
      4.20598      6.08809      9.99375        -1.158829      0.458253      0.014710
      6.35076      5.26696     10.03294         1.053464     -0.964457     -0.081879
    total drift:                               -0.003110      0.001626      0.003967

  FREE ENERGIE OF THE ION-ELECTRON SYSTEM (eV)
  free  energy   TOTEN  =      -608.39612083 eV

  energy  without entropy=     -608.39612083  energy(sigma->0) =     -608.39612083

 stress matrix after NEB project (eV)
    -11.12259      8.98982      0.07428
      8.98954    -56.19514      0.00852
      0.07549      0.01211     -0.29129
  FORCES: max atom, RMS     1.430618    0.352481
  FORCE total and by dimension    2.684415    1.158829
  Stress total and by dimension   58.679897   56.195136
 writing wavefunctions

 total charge

[...]

 magnetization (x)

# of ion       s       p       d       tot
    1        0.000   0.002   0.000   0.002
    2        0.000   0.002   0.000   0.003
    3       -0.001  -0.008   0.000  -0.008
    4        0.000   0.003   0.000   0.003
    5        0.000   0.002   0.000   0.002
    6       -0.000   0.000   0.000   0.000
    7       -0.000  -0.007   0.000  -0.007
    8        0.001  -0.002   0.000  -0.001
    9       -0.000  -0.005   0.000  -0.005
   10        0.000   0.001   0.000   0.002
   11        0.000   0.002   0.000   0.002
   12        0.000   0.001   0.000   0.001
   13       -0.001  -0.019   0.000  -0.021
   14        0.000   0.003   0.000   0.004
   15        0.000   0.004   0.000   0.004
   16       -0.001  -0.007   0.000  -0.008
   17       -0.000  -0.004   0.000  -0.005
   18       -0.000  -0.001   0.000  -0.001
   19       -0.001  -0.004   0.000  -0.004
   20       -0.000  -0.003   0.000  -0.003
   21       -0.001  -0.009   0.000  -0.010
   22       -0.000   0.001   0.000   0.001
   23        0.001   0.009   0.000   0.010
   24        0.002   0.024   0.000   0.026
   25        0.001   0.009   0.000   0.010
   26       -0.002  -0.012   0.000  -0.014
   27        0.000   0.006   0.000   0.006
   28        0.000   0.003   0.000   0.003
   29       -0.001  -0.006   0.000  -0.006
   30       -0.000  -0.005   0.000  -0.005
   31        0.000   0.004   0.000   0.005
   32        0.001   0.006   0.000   0.006
   33       -0.000  -0.003   0.000  -0.003
   34       -0.000  -0.005   0.000  -0.005
   35        0.000   0.004   0.000   0.004
   36        0.001   0.011   0.000   0.012
   37       -0.001  -0.007   0.000  -0.009
   38       -0.000  -0.001   0.000  -0.001
   39        0.000   0.003   0.000   0.003
   40        0.001   0.016   0.000   0.017
   41       -0.001  -0.015   0.000  -0.016
   42       -0.001  -0.012   0.000  -0.013
   43        0.000   0.004   0.000   0.004
   44        0.001   0.010   0.000   0.011
   45       -0.002  -0.014   0.000  -0.016
   46       -0.000  -0.004   0.000  -0.004
   47        0.000   0.005   0.000   0.005
   48        0.000   0.005   0.000   0.006
   49       -0.001  -0.008   0.000  -0.008
   50       -0.000  -0.004   0.000  -0.004
   51       -0.008  -0.038   0.000  -0.046
   52       -0.019  -0.076   0.000  -0.095
   53       -0.019  -0.104   0.000  -0.122
   54       -0.007  -0.047   0.000  -0.054
   55       -0.005  -0.038   0.000  -0.043
   56       -0.006  -0.032   0.000  -0.038
   57        0.038   0.005   1.936   1.979
   58        0.044  -0.007   2.384   2.421
tot          0.014  -0.360   4.320   3.974