 vasp.5.4.4.18Apr17-6-g9f103f2a35 (build Feb 25 2019 10:51:38) complex

 executed on             LinuxIFC date 2021.06.17  14:13:32

 INCAR:
 POTCAR:    PAW_PBE C 08Apr2002
 POTCAR:    PAW_PBE N 08Apr2002
 POTCAR:    PAW_PBE Fe 06Sep2000
 POTCAR:    PAW_PBE Sc_sv 07Sep2000

 POTCAR:    PAW_PBE C 08Apr2002
   VRHFIN =C: s2p2

   TITEL  = PAW_PBE C 08Apr2002
   POMASS =   12.011; ZVAL   =    4.000    mass and valenz
   ENMAX  =  400.000; ENMIN  =  300.000 eV

 POTCAR:    PAW_PBE N 08Apr2002
   VRHFIN =N: s2p3

   TITEL  = PAW_PBE N 08Apr2002
   POMASS =   14.001; ZVAL   =    5.000    mass and valenz
   ENMAX  =  400.000; ENMIN  =  300.000 eV

 POTCAR:    PAW_PBE Fe 06Sep2000
   VRHFIN =Fe:  d7 s1

   TITEL  = PAW_PBE Fe 06Sep2000
   POMASS =   55.847; ZVAL   =    8.000    mass and valenz
   ENMAX  =  267.882; ENMIN  =  200.911 eV

 POTCAR:    PAW_PBE Sc_sv 07Sep2000
   VRHFIN =Sc: 3p4s3d

   TITEL  = PAW_PBE Sc_sv 07Sep2000
   POMASS =   44.956; ZVAL   =   11.000    mass and valenz
   ENMAX  =  222.660; ENMIN  =  166.995 eV

  PAW_PBE C 08Apr2002                   :
  PAW_PBE N 08Apr2002                   :
  PAW_PBE Fe 06Sep2000                  :
  PAW_PBE Sc_sv 07Sep2000               :

 POSCAR:  C  N Fe Sc
  positions in cartesian coordinates
 exchange correlation table for  LEXCH =        8
   RHO(1)=    0.500       N(1)  =     2000
   RHO(2)=  100.500       N(2)  =     4000

 VTST: version 3.2, (02/03/18)

 CHAIN: initializing optimizer

 OPT: Using VASP Conjugate-Gradient optimizer
 CHAIN: Read ICHAIN            0

 POSCAR:  C  N Fe Sc
  positions in cartesian coordinates

 ion  position               nearest neighbor table
   1  0.222  0.001  0.501-   3 1.42   4 1.42  19 1.43
   2  0.055  0.102  0.501-   3 1.43  33 1.43   7 1.43
   3  0.110  0.001  0.501-  17 1.42   1 1.42   2 1.43
   4  0.277  0.102  0.500-  21 1.42   1 1.42   5 1.43
   5  0.224  0.204  0.500-   4 1.43   7 1.43   8 1.43
   6  0.056  0.303  0.501-   7 1.42  11 1.43  37 1.44
   7  0.111  0.203  0.501-   6 1.42   2 1.43   5 1.43
   8  0.282  0.303  0.498-  50 1.39   5 1.43   9 1.44
   9  0.228  0.406  0.501-  49 1.38   8 1.44  11 1.45
  10  0.056  0.501  0.502-  11 1.42  14 1.43  40 1.44
  11  0.114  0.403  0.501-  10 1.42   6 1.43   9 1.45
  12  0.227  0.597  0.502-  49 1.38  14 1.44  15 1.44
  13  0.056  0.700  0.501-  18 1.42  14 1.43  44 1.44
  14  0.114  0.600  0.501-  10 1.43  13 1.43  12 1.44
  15  0.283  0.699  0.503-  52 1.39  16 1.43  12 1.44
  16  0.224  0.799  0.502-  19 1.43  18 1.43  15 1.43
  17  0.055  0.901  0.501-   3 1.42  48 1.42  18 1.43
  18  0.111  0.800  0.501-  13 1.42  16 1.43  17 1.43
  19  0.277  0.901  0.501-  27 1.42  16 1.43   1 1.43
  20  0.555  0.001  0.501-  22 1.41  23 1.42  29 1.42
  21  0.389  0.101  0.499-   4 1.42  22 1.42  25 1.42
  22  0.444  0.001  0.501-  20 1.41  21 1.42  27 1.42
  23  0.610  0.101  0.499-  31 1.42  20 1.42  24 1.42
  24  0.556  0.202  0.497-  51 1.39  23 1.42  25 1.43
  25  0.443  0.202  0.497-  50 1.39  21 1.42  24 1.43
  26  0.556  0.799  0.503-  53 1.38  29 1.42  28 1.44
  27  0.389  0.900  0.502-  19 1.42  28 1.42  22 1.42
  28  0.443  0.799  0.503-  52 1.38  27 1.42  26 1.44
  29  0.610  0.900  0.502-  46 1.42  26 1.42  20 1.42
  30  0.888  0.001  0.501-  32 1.42  48 1.42  33 1.42
  31  0.721  0.102  0.500-  23 1.42  32 1.43  36 1.43
  32  0.777  0.001  0.501-  30 1.42  46 1.43  31 1.43
  33  0.943  0.102  0.501-  30 1.42   2 1.43  34 1.43
  34  0.887  0.203  0.501-  37 1.42  33 1.43  36 1.43
  35  0.716  0.304  0.498-  51 1.39  36 1.43  39 1.44
  36  0.774  0.204  0.500-  31 1.43  34 1.43  35 1.43
  37  0.942  0.303  0.501-  34 1.42  38 1.43   6 1.44
  38  0.884  0.403  0.501-  40 1.42  37 1.43  39 1.45
  39  0.770  0.406  0.501-  54 1.39  35 1.44  38 1.45
  40  0.943  0.501  0.502-  38 1.42  41 1.43  10 1.44
  41  0.885  0.601  0.501-  40 1.43  44 1.43  43 1.44
  42  0.716  0.700  0.502-  53 1.39  47 1.43  43 1.44
  43  0.772  0.598  0.502-  54 1.38  42 1.44  41 1.44
  44  0.943  0.700  0.501-  45 1.42  41 1.43  13 1.44
  45  0.887  0.800  0.501-  44 1.42  47 1.43  48 1.43
  46  0.721  0.901  0.501-  29 1.42  32 1.43  47 1.43
  47  0.775  0.799  0.502-  46 1.43  45 1.43  42 1.43
  48  0.943  0.901  0.501-  30 1.42  17 1.42  45 1.43
  49  0.284  0.502  0.503-  12 1.38   9 1.38
  50  0.391  0.301  0.493-  25 1.39   8 1.39  55 1.97
  51  0.607  0.301  0.493-  24 1.39  35 1.39  55 1.98
  52  0.392  0.700  0.504-  28 1.38  15 1.39  56 2.23
  53  0.607  0.700  0.503-  26 1.38  42 1.39  56 2.22
  54  0.714  0.503  0.503-  43 1.38  39 1.39
  55  0.499  0.388  0.446-  50 1.97  51 1.98  56 2.46
  56  0.500  0.558  0.510-  53 2.22  52 2.23  55 2.46

  LATTYP: Found a triclinic cell.
 ALAT       =    26.9586935568
 B/A-ratio  =     0.4715658781
 C/A-ratio  =     0.4567617483
 COS(alpha) =     0.0000733038
 COS(beta)  =     0.4585135263
 COS(gamma) =     0.4723508870

  Lattice vectors:

 A1 = ( -12.7339628130, -12.3599922332,  20.2940370888)
 A2 = ( -12.7128000000,   0.0000000000,   0.0000000000)
 A3 = (  -0.0009026414, -12.3136999669,   0.0000000000)

Analysis of symmetry for initial positions (statically):
 Subroutine PRICEL returns:
 Original cell was already a primitive cell.

 Routine SETGRP: Setting up the symmetry group for a
 triclinic supercell.

 Subroutine GETGRP returns: Found  1 space group operations
 (whereof  1 operations were pure point group operations)
 out of a pool of  2 trial point group operations.

The static configuration has the point symmetry C_1 .

Analysis of symmetry for dynamics (positions and initial velocities):
 Subroutine PRICEL returns:
 Original cell was already a primitive cell.

[...]

The dynamic configuration has the point symmetry C_1 .

Analysis of structural, dynamic, and magnetic symmetry:
 Subroutine PRICEL returns:
 Original cell was already a primitive cell.

 Routine SETGRP: Setting up the symmetry group for a
 triclinic supercell.

 Subroutine GETGRP returns: Found  1 space group operations
 (whereof  1 operations were pure point group operations)
 out of a pool of  2 trial point group operations.

The magnetic configuration has the point symmetry C_1 .

 Subroutine INISYM returns: Found  1 space group operations
 (whereof  1 operations are pure point group operations),
 and found     1 'primitive' translations

 KPOINTS: KPOINTS created by Atomic Simulation Env

Automatic generation of k-mesh.
Space group operators:
 irot       det(A)        alpha          n_x          n_y          n_z        tau_x        tau_y        tau_z
    1     1.000000     0.000000     1.000000     0.000000     0.000000     0.000000     0.000000     0.000000

 Subroutine IBZKPT returns following result:

 Found      2 irreducible k-points:

 Following reciprocal coordinates:
            Coordinates               Weight
  0.250000  0.250000  0.000000      2.000000
 -0.250000  0.250000  0.000000      2.000000

 Following cartesian coordinates:
            Coordinates               Weight
  0.019665  0.020301  0.000066      2.000000
 -0.019665  0.020304  0.000027      2.000000

 Subroutine IBZKPT_HF returns following result:

 Found      4 k-points in 1st BZ
 the following      4 k-points will be used (e.g. in the exchange kernel)
 Following reciprocal coordinates:   # in IRBZ
  0.250000  0.250000  0.000000    0.25000000   1 t-inv F
 -0.250000  0.250000  0.000000    0.25000000   2 t-inv F
 -0.250000 -0.250000  0.000000    0.25000000   1 t-inv T
  0.250000 -0.250000 -0.000000    0.25000000   2 t-inv T

 SYSTEM =  unknown system
 POSCAR =   C  N Fe Sc

 Startparameter for this run:
   NWRITE =      2    write-flag & timer
   PREC   = accura    normal or accurate (medium, high low for compatibility)
   ISTART =      1    job   : 0-new  1-cont  2-samecut
   ICHARG =      0    charge: 1-file 2-atom 10-const
   ISPIN  =      2    spin polarized calculation?
   LNONCOLLINEAR =      F non collinear calculations
   LSORBIT =      F    spin-orbit coupling
   INIWAV =      1    electr: 0-lowe 1-rand  2-diag
   LASPH  =      T    aspherical Exc in radial PAW
   METAGGA=      F    non-selfconsistent MetaGGA calc.

 Electronic Relaxation 1
   ENCUT  =  500.0 eV  36.75 Ry    6.06 a.u.  23.18 22.45 37.00*2*pi/ulx,y,z
   ENINI  =  500.0     initial cutoff
   ENAUG  =  644.9 eV  augmentation charge cutoff
   NELM   =    250;   NELMIN=  2; NELMDL=  0     # of ELM steps
   EDIFF  = 0.1E-03   stopping-criterion for ELM
   LREAL  =      F    real-space projection
   NLSPLINE    = F    spline interpolate recip. space projectors
   LCOMPAT=      F    compatible to vasp.4.4
   GGA_COMPAT  = T    GGA compatible to vasp.4.4-vasp.4.6
   LMAXPAW     = -100 max onsite density
   LMAXMIX     =    2 max onsite mixed and CHGCAR
   VOSKOWN=      0    Vosko Wilk Nusair interpolation
   ROPT   =    0.00000   0.00000   0.00000   0.00000
 Ionic relaxation
   EDIFFG = -.3E-01   stopping-criterion for IOM
   NSW    =      0    number of steps for IOM
   NBLOCK =      1;   KBLOCK =      1    inner block; outer block
   IBRION =     -1    ionic relax: 0-MD 1-quasi-New 2-CG
   NFREE  =      1    steps in history (QN), initial steepest desc. (CG)
   ISIF   =      2    stress and relaxation
   IWAVPR =     10    prediction:  0-non 1-charg 2-wave 3-comb
   ISYM   =      3    0-nonsym 1-usesym 2-fastsym
   LCORR  =      T    Harris-Foulkes like correction to forces

   POTIM  = 0.5000    time-step for ionic-motion
   TEIN   =    0.0    initial temperature
   TEBEG  =    0.0;   TEEND  =   0.0 temperature during run
   SMASS  =  -3.00    Nose mass-parameter (am)
   estimated Nose-frequenzy (Omega)   =  0.10E-29 period in steps =****** mass=  -0.369E-26a.u.
   SCALEE = 1.0000    scale energy and forces
   NPACO  =    256;   APACO  = 16.0  distance and # of slots for P.C.
   PSTRESS=    0.0 pullay stress

  Mass of Ions in am
   POMASS =  12.01 14.00 55.85 44.96
  Ionic Valenz
   ZVAL   =   4.00  5.00  8.00 11.00
  Atomic Wigner-Seitz radii
  virtual crystal weights
   VCA    =   1.00  1.00  1.00  1.00
   NELECT =     241.0000    total number of electrons
   NUPDOWN=      -1.0000    fix difference up-down

 DOS related values:
   EMIN   =  10.00;   EMAX   =-10.00  energy-range for DOS
   EFERMI =   0.00
   ISMEAR =     0;   SIGMA  =   0.10  broadening in eV -4-tet -1-fermi 0-gaus

 Electronic relaxation 2 (details)
   IALGO  =     53    algorithm
   LDIAG  =      T    sub-space diagonalisation (order eigenvalues)
   LSUBROT=      F    optimize rotation matrix (better conditioning)
   TURBO    =      0    0=normal 1=particle mesh
   IRESTART =      0    0=no restart 2=restart with 2 vectors
   NREBOOT  =      0    no. of reboots
   NMIN     =      0    reboot dimension
   EREF     =   0.00    reference energy to select bands
   IMIX   =      4    mixing-type and parameters
     AMIX     =   0.40;   BMIX     =  1.00
     AMIX_MAG =   1.60;   BMIX_MAG =  1.00
     AMIN     =   0.10
     WC   =   100.;   INIMIX=   1;  MIXPRE=   1;  MAXMIX= -45

 Intra band minimization:
   WEIMIN = 0.0000     energy-eigenvalue tresh-hold
   EBREAK =  0.16E-06  absolut break condition
   DEPER  =   0.30     relativ break condition

   TIME   =   0.20     timestep for ELM

[...]
   21        0.870   1.788   0.000   2.658
   22        0.868   1.797   0.000   2.665
   23        0.870   1.788   0.000   2.658
   24        0.861   1.746   0.000   2.607
   25        0.861   1.746   0.000   2.607
   26        0.862   1.743   0.000   2.606
   27        0.869   1.786   0.000   2.655
   28        0.862   1.743   0.000   2.605
   29        0.869   1.787   0.000   2.655
   30        0.867   1.783   0.000   2.650
   31        0.871   1.771   0.000   2.642
   32        0.865   1.787   0.000   2.652
   33        0.867   1.771   0.000   2.638
   34        0.866   1.772   0.000   2.638
   35        0.854   1.728   0.000   2.582
   36        0.864   1.766   0.000   2.631
   37        0.863   1.769   0.000   2.632
   38        0.864   1.758   0.000   2.622
   39        0.851   1.717   0.000   2.569
   40        0.866   1.767   0.000   2.633
   41        0.864   1.768   0.000   2.632
   42        0.857   1.728   0.000   2.586
   43        0.855   1.728   0.000   2.583
   44        0.865   1.774   0.000   2.638
   45        0.866   1.777   0.000   2.643
   46        0.871   1.769   0.000   2.641
   47        0.866   1.771   0.000   2.637
   48        0.867   1.774   0.000   2.641
   49        1.238   2.601   0.000   3.839
   50        1.231   2.664   0.000   3.895
   51        1.231   2.662   0.000   3.893
   52        1.233   2.659   0.000   3.892
   53        1.233   2.662   0.000   3.895
   54        1.237   2.601   0.000   3.838
   55        0.471   0.352   6.133   6.956
   56        2.193   6.106   0.950   9.249
tot         51.548 106.985   7.083 165.616

 magnetization (x)

[...]

  FORCE on cell =-STRESS in cart. coord.  units (eV):
  Direction    XX          YY          ZZ          XY          YZ          ZX
  Alpha Z   101.39330   101.39330   101.39330
  Ewald   47496.68476 47641.56487-55992.13964     2.01521  -147.50137    -0.41889
  Hartree 47223.70811 47277.67446-46476.07630     0.63987   -74.46349     0.07087
  E(xc)    -708.79053  -709.40177  -722.93590    -0.00296    -0.18316    -0.00827
  Local  -97292.94521-97493.13600 99425.64103    -2.55432   211.05999     0.16139
  n-local  -186.98860  -182.84349  -180.68884     0.02282     1.48625     0.02744
  augment    43.71060    49.75501    47.69121     0.00656     0.75055     0.06874
  Kinetic  3622.90695  3620.31996  4115.79101     0.35143     9.80511     0.12760
  Fock     -341.90218  -348.26639  -318.67849    -0.00156    -0.62503    -0.05404
  Total     -42.22280   -42.94006    -0.00263     0.47706     0.32885    -0.02517
  in kB     -21.29411   -21.65584    -0.00132     0.24059     0.16585    -0.01269

 VOLUME and BASIS-vectors are now :
  energy-cutoff  :      500.00
  volume of cell :     3176.86
      direct lattice vectors                 reciprocal lattice vectors
    12.712800000  0.000000000  0.000000000     0.078660877 -0.000005766  0.000078516
     0.000902641 12.313699967  0.000000000     0.000000000  0.081210359  0.000185247
    -0.020260172 -0.046292266 20.294037089     0.000000000  0.000000000  0.049275558

  length of vectors
    12.712800000 12.313700000 20.294100000     0.078660917  0.081210571  0.049275558

 FORCES acting on ions:
    Electron-Ion                     Ewald-Force                    Non-Local-Force
   0.422E+01 0.134E+01 -.246E+01   -.466E+01 -.126E+01 0.246E+01   0.477E+00 -.621E-01 -.470E-02
   0.537E+00 -.135E+01 -.681E+01   -.516E+00 0.127E+01 0.680E+01   0.691E-03 0.270E-01 -.162E-02
   0.421E+01 -.237E+00 -.332E+01   -.447E+01 0.229E+00 0.330E+01   0.161E+00 0.120E-01 0.153E-01
   0.127E+02 0.461E+01 -.201E+01   -.132E+02 -.482E+01 0.195E+01   0.360E+00 0.170E+00 0.668E-01
   0.129E+02 -.117E+01 -.717E+01   -.133E+02 0.141E+01 0.708E+01   0.391E+00 -.208E+00 0.709E-01
   0.538E+01 -.283E+01 -.587E+01   -.546E+01 0.271E+01 0.580E+01   0.154E+00 0.654E-01 0.711E-01
   0.298E+01 0.121E+01 -.873E+01   -.341E+01 -.105E+01 0.873E+01   0.354E+00 -.796E-01 -.109E-01
   0.319E+02 -.141E+02 -.918E+01   -.353E+02 0.146E+02 0.950E+01   0.345E+01 -.490E+00 -.355E+00
   0.761E+01 0.145E+02 -.134E+02   -.889E+01 -.164E+02 0.134E+02   0.123E+01 0.198E+01 -.726E-01
   0.769E+01 -.249E+00 -.582E+01   -.781E+01 0.226E+00 0.584E+01   0.187E-01 0.152E-02 -.310E-01
   -.877E+00 0.407E+01 -.736E+01   0.924E+00 -.440E+01 0.731E+01   -.197E-01 0.289E+00 0.405E-01
   0.890E+01 -.166E+02 -.775E+01   -.104E+02 0.184E+02 0.766E+01   0.141E+01 -.183E+01 0.915E-01
   0.433E+01 0.242E+01 0.109E+01   -.438E+01 -.229E+01 -.111E+01   0.147E+00 -.529E-01 0.348E-01
   0.663E+00 -.364E+01 -.146E+01   -.663E+00 0.400E+01 0.137E+01   0.603E-01 -.286E+00 0.101E+00
   0.278E+02 0.877E+01 -.758E+01   -.312E+02 -.924E+01 0.748E+01   0.341E+01 0.483E+00 0.896E-01
   0.978E+01 0.238E+01 -.295E+01   -.103E+02 -.252E+01 0.292E+01   0.564E+00 0.123E+00 0.279E-01
   0.180E+00 0.239E+01 -.980E+00   -.170E+00 -.231E+01 0.969E+00   -.398E-02 -.198E-01 0.151E-01
   0.199E+01 -.168E+01 0.489E+00   -.252E+01 0.151E+01 -.529E+00   0.429E+00 0.813E-01 0.513E-01
   0.991E+01 -.284E+01 -.358E+01   -.103E+02 0.312E+01 0.355E+01   0.357E+00 -.273E+00 0.335E-01
   -.623E+01 0.328E+01 -.674E+01   0.585E+01 -.325E+01 0.669E+01   0.301E+00 -.474E-01 0.378E-01
   0.398E+01 0.113E+02 -.531E+01   -.382E+01 -.118E+02 0.521E+01   0.114E-02 0.547E+00 0.105E+00
   0.629E+01 0.344E+01 -.701E+01   -.591E+01 -.341E+01 0.696E+01   -.301E+00 -.431E-01 0.380E-01
   -.404E+01 0.111E+02 -.483E+01   0.388E+01 -.116E+02 0.473E+01   0.202E-02 0.537E+00 0.107E+00
   0.198E+01 0.319E+02 -.161E+02   -.296E+01 -.348E+02 0.171E+02   0.116E+01 0.276E+01 -.101E+01
   -.226E+01 0.321E+02 -.161E+02   0.326E+01 -.349E+02 0.172E+02   -.118E+01 0.277E+01 -.102E+01
   0.817E+01 -.237E+02 -.933E+01   -.932E+01 0.264E+02 0.923E+01   0.133E+01 -.277E+01 0.845E-01
   0.165E+01 -.495E+01 -.737E+01   -.148E+01 0.551E+01 0.734E+01   -.806E-01 -.584E+00 0.145E-01
   -.738E+01 -.233E+02 -.991E+01   0.850E+01 0.261E+02 0.980E+01   -.130E+01 -.275E+01 0.881E-01
   -.154E+01 -.528E+01 -.684E+01   0.136E+01 0.585E+01 0.681E+01   0.742E-01 -.590E+00 0.173E-01
   -.427E+01 -.591E-01 -.288E+01   0.453E+01 0.560E-01 0.286E+01   -.160E+00 0.130E-01 0.185E-01
   -.127E+02 0.462E+01 -.117E+01   0.132E+02 -.483E+01 0.111E+01   -.359E+00 0.168E+00 0.629E-01
   -.424E+01 0.871E+00 -.179E+01   0.467E+01 -.789E+00 0.179E+01   -.482E+00 -.692E-01 -.294E-02
   -.506E+00 -.175E+01 -.654E+01   0.480E+00 0.166E+01 0.653E+01   0.207E-02 0.243E-01 -.920E-03
   -.290E+01 0.148E+01 -.826E+01   0.333E+01 -.133E+01 0.827E+01   -.347E+00 -.812E-01 -.159E-01
   -.318E+02 -.138E+02 -.880E+01   0.352E+02 0.142E+02 0.910E+01   -.343E+01 -.496E+00 -.342E+00
   -.128E+02 -.149E+01 -.598E+01   0.132E+02 0.174E+01 0.588E+01   -.382E+00 -.222E+00 0.862E-01
   -.531E+01 -.304E+01 -.574E+01   0.539E+01 0.293E+01 0.567E+01   -.148E+00 0.672E-01 0.667E-01
   0.864E+00 0.425E+01 -.705E+01   -.907E+00 -.458E+01 0.700E+01   0.273E-01 0.282E+00 0.449E-01
   -.773E+01 0.146E+02 -.132E+02   0.900E+01 -.166E+02 0.133E+02   -.122E+01 0.200E+01 -.597E-01
   -.788E+01 -.313E-01 -.578E+01   0.799E+01 0.315E-02 0.581E+01   -.214E-01 0.413E-02 -.315E-01
   -.121E+01 -.351E+01 -.157E+01   0.122E+01 0.387E+01 0.148E+01   -.737E-01 -.286E+00 0.100E+00
   -.284E+02 0.806E+01 -.713E+01   0.319E+02 -.852E+01 0.703E+01   -.344E+01 0.463E+00 0.844E-01
   -.985E+01 -.160E+02 -.797E+01   0.113E+02 0.178E+02 0.788E+01   -.143E+01 -.182E+01 0.935E-01
   -.471E+01 0.235E+01 0.990E+00   0.475E+01 -.222E+01 -.101E+01   -.155E+00 -.573E-01 0.341E-01
   -.239E+01 -.157E+01 0.326E+00   0.293E+01 0.140E+01 -.366E+00   -.438E+00 0.796E-01 0.483E-01
   -.979E+01 -.305E+01 -.313E+01   0.102E+02 0.335E+01 0.309E+01   -.352E+00 -.282E+00 0.342E-01
   -.100E+02 0.178E+01 -.288E+01   0.106E+02 -.189E+01 0.286E+01   -.576E+00 0.101E+00 0.242E-01
   -.438E+00 0.199E+01 -.982E+00   0.433E+00 -.191E+01 0.972E+00   -.849E-04 -.273E-01 0.121E-01
   -.995E+02 0.397E+01 -.302E+02   0.127E+03 -.394E+01 0.312E+02   -.255E+02 0.243E-01 -.954E+00
   0.987E+01 -.694E+02 -.525E+01   0.753E-01 0.887E+02 0.614E+01   -.963E+01 -.185E+02 -.517E+00
   -.952E+01 -.695E+02 -.659E+01   -.478E+00 0.889E+02 0.760E+01   0.968E+01 -.186E+02 -.656E+00
   -.893E+01 0.592E+02 -.137E+02   0.199E+02 -.788E+02 0.137E+02   -.103E+02 0.185E+02 0.654E-01
   0.926E+01 0.569E+02 -.113E+02   -.202E+02 -.764E+02 0.111E+02   0.102E+02 0.184E+02 0.162E+00
   0.976E+02 0.519E+01 -.315E+02   -.124E+03 -.513E+01 0.327E+02   0.253E+02 -.195E-01 -.104E+01
   0.628E+00 -.911E+02 0.603E+03   -.630E+00 0.933E+02 -.601E+03   0.227E-01 -.226E+01 -.348E+01
   0.360E+01 0.834E+02 -.230E+03   -.348E+01 -.781E+02 0.223E+03   -.111E+00 -.429E+01 0.603E+01
   0.365E+00 0.715E+01 0.995E+00   -.853E-13 0.355E-12 0.853E-13   -.332E+00 -.707E+01 -.144E+01

 POSITION                                       TOTAL-FORCE (eV/Angst)
      2.81037     -0.00877     10.16185         0.063661      0.019665      0.000784
      0.69187      1.23731     10.17649         0.018532     -0.059737     -0.007201
      1.38773     -0.00681     10.16876        -0.082282      0.003669     -0.000602
      3.51331      1.23028     10.14196        -0.053923     -0.035973      0.007565
      2.83368      2.48648     10.14762         0.016904      0.019792     -0.021177
      0.69943      3.71084     10.17442         0.088806     -0.049317      0.003613
      1.40206      2.47743     10.17384        -0.067796      0.074730     -0.003941
      3.57987      3.71025     10.11254         0.227774     -0.041607     -0.057609
      2.88952      4.97575     10.17069         0.023688      0.127549     -0.013859
      0.69828      6.14918     10.17985        -0.086420     -0.021795     -0.004680
      1.43810      4.93367     10.17680         0.017357     -0.029202     -0.010269
      2.87618      7.33198     10.19153         0.025483     -0.176718      0.010375
      0.69970      8.59346     10.16461         0.112828      0.080433      0.014905
      1.43425      7.37045     10.17342         0.056196      0.048805      0.013433
      3.58277      8.58984     10.19870         0.170255      0.036612     -0.007964
      2.83385      9.81339     10.17934         0.067545      0.004017      0.007878
      0.69362     11.06613     10.16606         0.003716      0.064472      0.005149
      1.40396      9.82431     10.16616        -0.082121     -0.088055      0.014724
      3.51548     11.06547     10.17507        -0.009826     -0.003576      0.004531
      7.03988     -0.01362     10.16167        -0.076000     -0.016880     -0.003504
      4.93028      1.22162     10.13044         0.161047      0.072196      0.011330
      5.63182     -0.01487     10.16281         0.078033     -0.019005     -0.003613
      7.74027      1.22364     10.12862        -0.153056      0.060698      0.013277
      7.05221      2.46779     10.08213         0.242551      0.064885     -0.056314
      5.61741      2.46609     10.08201        -0.245982      0.064044     -0.058096
      7.05531      9.81179     10.20614         0.243789     -0.159085     -0.015631
      4.93469     11.05743     10.18555         0.077176     -0.058339     -0.012115
      5.62029      9.80978     10.20821        -0.241589     -0.155410     -0.018488
      7.74001     11.05939     10.18332        -0.089950     -0.058732     -0.010070
     11.28431     -0.00574     10.16689         0.085026      0.010223      0.002112
      9.15750      1.23278     10.13871         0.053818     -0.028238      0.009594
      9.86173     -0.00618     10.15889        -0.073777      0.009301      0.002002
     11.97891      1.23825     10.17538        -0.021287     -0.061371     -0.007913
     11.26758      2.47878     10.17194         0.067325      0.070660     -0.008256
      9.08854      3.71416     10.11217        -0.223608     -0.051679     -0.053270
      9.83571      2.48947     10.14420        -0.012101      0.008192     -0.008982
     11.96987      3.71177     10.17383        -0.089012     -0.046759      0.000646
     11.23134      4.93551     10.17624        -0.004875     -0.032318     -0.007148
      9.77948      4.97895     10.17128        -0.024552      0.125176     -0.004894
     11.97361      6.14992     10.17985         0.081420     -0.024129     -0.002197
     11.23959      7.37217     10.17387        -0.054355      0.048777      0.012820
      9.09492      8.59427     10.19687        -0.167150      0.023437     -0.009215
      9.79837      7.33593     10.19257        -0.027335     -0.161940      0.009240
     11.97534      8.59451     10.16479        -0.121655      0.072647      0.013893
     11.27187      9.82612     10.16608         0.081341     -0.087378      0.012254
      9.15923     11.06826     10.17271         0.022028     -0.001816      0.000709
      9.84258      9.81720     10.17820        -0.075483     -0.007434      0.004478
     11.98156     11.06727     10.16568        -0.003331      0.055289      0.002659
      3.60628      6.15918     10.20551        -0.625362      0.052169      0.012586
      4.96197      3.68460     10.00100        -0.514741     -0.827411      0.329056
      7.70527      3.68818     10.00432         0.517555     -0.828108      0.301612
      4.97051      8.59095     10.21849        -0.189760      0.530648      0.032754
      7.70791      8.59478     10.21370         0.179973      0.524100      0.043617
      9.06382      6.16484     10.20926         0.617739      0.035872     -0.003000
      6.32977      4.75248      9.05949         0.024064      0.056514     -0.480854
      6.35128      6.84559     10.35938        -0.008299      0.767440     -0.006735
    total drift:                                0.004464      0.000479     -0.007947

  FREE ENERGIE OF THE ION-ELECTRON SYSTEM (eV)
  free  energy   TOTEN  =      -586.33372547 eV

  energy  without entropy=     -586.33316214  energy(sigma->0) =     -586.33344380

 stress matrix after NEB project (eV)
    -42.22280      0.47703     -0.02517
      0.47706    -42.94006      0.32222
     -0.02521      0.32885     -0.00263
  FORCES: max atom, RMS     1.028516    0.304343
  FORCE total and by dimension    2.277498    0.828108
  Stress total and by dimension   60.226924   42.940062
 writing wavefunctions

 total charge

[...]

 magnetization (x)

# of ion       s       p       d       tot
    1        0.000   0.003   0.000   0.003
    2        0.000   0.000   0.000   0.001
    3       -0.000  -0.008   0.000  -0.008
    4       -0.000  -0.001   0.000  -0.001
    5        0.001  -0.000   0.000   0.000
    6        0.000   0.001   0.000   0.001
    7       -0.000  -0.008   0.000  -0.008
    8       -0.000  -0.017   0.000  -0.017
    9        0.001  -0.003   0.000  -0.002
   10       -0.001  -0.017   0.000  -0.018
   11        0.000  -0.003   0.000  -0.003
   12        0.001   0.009   0.000   0.011
   13        0.001   0.009   0.000   0.009
   14       -0.000  -0.008   0.000  -0.009
   15       -0.001  -0.016   0.000  -0.018
   16        0.001   0.005   0.000   0.006
   17        0.000  -0.001   0.000  -0.001
   18       -0.001  -0.014   0.000  -0.015
   19        0.000   0.006   0.000   0.007
   20        0.000   0.000   0.000   0.001
   21        0.000  -0.000   0.000   0.000
   22        0.000   0.000   0.000   0.000
   23        0.000  -0.000   0.000  -0.000
   24        0.001  -0.006   0.000  -0.005
   25        0.001  -0.007   0.000  -0.006
   26        0.001   0.013   0.000   0.013
   27       -0.001  -0.006   0.000  -0.007
   28        0.001   0.013   0.000   0.013
   29       -0.001  -0.007   0.000  -0.007
   30       -0.000  -0.008   0.000  -0.008
   31       -0.000  -0.001   0.000  -0.001
   32        0.000   0.003   0.000   0.003
   33        0.000  -0.000   0.000   0.000
   34       -0.000  -0.007   0.000  -0.007
   35       -0.000  -0.017   0.000  -0.017
   36        0.001  -0.001   0.000  -0.000
   37        0.000   0.000   0.000   0.000
   38        0.000  -0.002   0.000  -0.002
   39        0.001  -0.004   0.000  -0.003
   40       -0.001  -0.019   0.000  -0.020
   41       -0.000  -0.008   0.000  -0.008
   42       -0.001  -0.016   0.000  -0.018
   43        0.001   0.008   0.000   0.009
   44        0.001   0.008   0.000   0.009
   45       -0.001  -0.013   0.000  -0.014
   46        0.000   0.006   0.000   0.007
   47        0.001   0.005   0.000   0.006
   48        0.000  -0.002   0.000  -0.002
   49       -0.002  -0.086   0.000  -0.088
   50        0.004  -0.026   0.000  -0.022
   51        0.004  -0.027   0.000  -0.022
   52        0.001   0.023   0.000   0.024
   53        0.001   0.022   0.000   0.023
   54       -0.002  -0.087   0.000  -0.089
   55        0.064   0.054   3.224   3.342
   56       -0.012  -0.010  -0.180  -0.202
tot          0.063  -0.265   3.044   2.842