 vasp.5.4.4.18Apr17-6-g9f103f2a35 (build Feb 25 2019 10:51:38) complex

 executed on             LinuxIFC date 2021.03.09  16:07:16

 INCAR:
 POTCAR:    PAW_PBE C 08Apr2002
 POTCAR:    PAW_PBE N 08Apr2002
 POTCAR:    PAW_PBE Cu 22Jun2005
 POTCAR:    PAW_PBE Fe 06Sep2000

 POTCAR:    PAW_PBE C 08Apr2002
   VRHFIN =C: s2p2

   TITEL  = PAW_PBE C 08Apr2002
   POMASS =   12.011; ZVAL   =    4.000    mass and valenz
   ENMAX  =  400.000; ENMIN  =  300.000 eV

 POTCAR:    PAW_PBE N 08Apr2002
   VRHFIN =N: s2p3

   TITEL  = PAW_PBE N 08Apr2002
   POMASS =   14.001; ZVAL   =    5.000    mass and valenz
   ENMAX  =  400.000; ENMIN  =  300.000 eV

 POTCAR:    PAW_PBE Cu 22Jun2005
   VRHFIN =Cu: d10 p1

   TITEL  = PAW_PBE Cu 22Jun2005
   POMASS =   63.546; ZVAL   =   11.000    mass and valenz
   ENMAX  =  295.446; ENMIN  =  221.585 eV

 POTCAR:    PAW_PBE Fe 06Sep2000
   VRHFIN =Fe:  d7 s1

   TITEL  = PAW_PBE Fe 06Sep2000
   POMASS =   55.847; ZVAL   =    8.000    mass and valenz
   ENMAX  =  267.882; ENMIN  =  200.911 eV

  PAW_PBE C 08Apr2002                   :
  PAW_PBE N 08Apr2002                   :
  PAW_PBE Cu 22Jun2005                  :
  PAW_PBE Fe 06Sep2000                  :

 POSCAR:  C  N Cu Fe
  positions in cartesian coordinates
 exchange correlation table for  LEXCH =        8
   RHO(1)=    0.500       N(1)  =     2000
   RHO(2)=  100.500       N(2)  =     4000

 VTST: version 3.2, (02/03/18)

 CHAIN: initializing optimizer

 OPT: Using VASP Conjugate-Gradient optimizer
 CHAIN: Read ICHAIN            0

 POSCAR:  C  N Cu Fe
  positions in cartesian coordinates

 ion  position               nearest neighbor table
   1  0.222  0.000  0.492-   3 1.42  19 1.43   4 1.44
   2  0.057  0.101  0.486-   3 1.43  37 1.43   7 1.44
   3  0.111  1.000  0.488-   1 1.42   2 1.43  17 1.44
   4  0.277  0.101  0.492-  21 1.42   5 1.44   1 1.44
   5  0.224  0.203  0.495-   7 1.44   4 1.44   8 1.45
   6  0.056  0.301  0.491-  41 1.43   7 1.43  11 1.43
   7  0.112  0.201  0.490-   6 1.43   5 1.44   2 1.44
   8  0.280  0.304  0.504-   5 1.45  25 1.45   9 1.47
   9  0.220  0.405  0.507-  54 1.37  11 1.43   8 1.47
  10  0.052  0.501  0.497-  45 1.43  14 1.43  11 1.43
  11  0.109  0.401  0.497-   6 1.43   9 1.43  10 1.43
  12  0.217  0.600  0.514-  54 1.37  14 1.42  15 1.46
  13  0.052  0.700  0.495-  14 1.42  49 1.43  18 1.43
  14  0.107  0.601  0.501-  12 1.42  13 1.42  10 1.43
  15  0.274  0.702  0.518-  16 1.43  29 1.46  12 1.46
  16  0.220  0.800  0.502-  15 1.43  18 1.43  19 1.44
  17  0.055  0.900  0.488-  53 1.43  18 1.43   3 1.44
  18  0.109  0.800  0.494-  17 1.43  13 1.43  16 1.43
  19  0.277  0.900  0.498-   1 1.43  31 1.43  16 1.44
  20  0.555  0.999  0.489-  22 1.42  33 1.42  23 1.43
  21  0.388  0.099  0.490-   4 1.42  26 1.42  22 1.43
  22  0.444  1.000  0.491-  20 1.42  21 1.43  31 1.43
  23  0.611  0.097  0.484-  24 1.42  35 1.43  20 1.43
  24  0.556  0.196  0.488-  23 1.42  27 1.42  26 1.42
  25  0.394  0.298  0.506-  55 1.38  26 1.43   8 1.45
  26  0.445  0.198  0.493-  24 1.42  21 1.42  25 1.43
  27  0.614  0.294  0.492-  28 1.41  39 1.41  24 1.42
  28  0.560  0.389  0.511-  55 1.36  56 1.38  27 1.41
  29  0.382  0.713  0.539-  57 1.34  32 1.46  15 1.46
  30  0.556  0.803  0.512-  58 1.39  33 1.43  32 1.44
  31  0.388  0.900  0.500-  32 1.42  22 1.43  19 1.43
  32  0.444  0.804  0.516-  31 1.42  30 1.44  29 1.46
  33  0.610  0.900  0.495-  20 1.42  51 1.42  30 1.43
  34  0.889  0.999  0.483-  53 1.43  36 1.43  37 1.44
  35  0.722  0.098  0.482-  36 1.42  23 1.43  40 1.43
  36  0.778  0.999  0.484-  35 1.42  34 1.43  51 1.43
  37  0.945  0.099  0.483-  38 1.43   2 1.43  34 1.44
  38  0.890  0.199  0.483-  40 1.42  37 1.43  41 1.43
  39  0.724  0.297  0.488-  27 1.41  40 1.42  44 1.43
  40  0.779  0.198  0.483-  39 1.42  38 1.42  35 1.43
  41  0.944  0.300  0.487-   6 1.43  38 1.43  42 1.43
  42  0.888  0.399  0.491-  44 1.42  45 1.42  41 1.43
  43  0.718  0.494  0.507-  56 1.38  44 1.43  48 1.46
  44  0.777  0.398  0.494-  42 1.42  39 1.43  43 1.43
  45  0.941  0.500  0.495-  42 1.42  10 1.43  46 1.44
  46  0.883  0.599  0.498-  45 1.44  48 1.44  49 1.44
  47  0.719  0.703  0.507-  58 1.38  52 1.43  48 1.46
  48  0.771  0.598  0.506-  46 1.44  47 1.46  43 1.46
  49  0.941  0.699  0.494-  50 1.42  13 1.43  46 1.44
  50  0.887  0.799  0.490-  49 1.42  52 1.43  53 1.44
  51  0.721  0.900  0.490-  33 1.42  52 1.43  36 1.43
  52  0.776  0.800  0.494-  50 1.43  51 1.43  47 1.43
  53  0.943  0.899  0.486-  34 1.43  17 1.43  50 1.44
  54  0.266  0.502  0.521-   9 1.37  12 1.37  59 1.92
  55  0.455  0.386  0.521-  28 1.36  25 1.38  59 1.87
  56  0.614  0.484  0.523-  28 1.38  43 1.38  60 1.91
  57  0.427  0.646  0.583-  29 1.34  60 1.76  59 1.83
  58  0.614  0.710  0.524-  47 1.38  30 1.39  60 1.84
  59  0.398  0.505  0.565-  57 1.83  55 1.87  54 1.92  60 2.35
  60  0.556  0.600  0.574-  57 1.76  58 1.84  56 1.91  59 2.35

  LATTYP: Found a simple orthorhombic cell.
 ALAT       =    12.4000000000
 B/A-ratio  =     1.0330645161
 C/A-ratio  =     1.6129032258

  Lattice vectors:

 A1 = (   0.0000000000, -12.4000000000,   0.0000000000)
 A2 = ( -12.8100000000,   0.0000000000,   0.0000000000)
 A3 = (   0.0000000000,   0.0000000000, -20.0000000000)

Analysis of symmetry for initial positions (statically):
 Subroutine PRICEL returns:
 Original cell was already a primitive cell.

 Routine SETGRP: Setting up the symmetry group for a
 simple orthorhombic supercell.

 Subroutine GETGRP returns: Found  1 space group operations
 (whereof  1 operations were pure point group operations)
 out of a pool of  8 trial point group operations.

The static configuration has the point symmetry C_1 .

Analysis of symmetry for dynamics (positions and initial velocities):
 Subroutine PRICEL returns:
 Original cell was already a primitive cell.

[...]

The dynamic configuration has the point symmetry C_1 .

Analysis of structural, dynamic, and magnetic symmetry:
 Subroutine PRICEL returns:
 Original cell was already a primitive cell.

 Routine SETGRP: Setting up the symmetry group for a
 simple orthorhombic supercell.

 Subroutine GETGRP returns: Found  1 space group operations
 (whereof  1 operations were pure point group operations)
 out of a pool of  8 trial point group operations.

The magnetic configuration has the point symmetry C_1 .

 Subroutine INISYM returns: Found  1 space group operations
 (whereof  1 operations are pure point group operations),
 and found     1 'primitive' translations

 KPOINTS: KPOINTS created by Atomic Simulation Env

Automatic generation of k-mesh.
Space group operators:
 irot       det(A)        alpha          n_x          n_y          n_z        tau_x        tau_y        tau_z
    1     1.000000     0.000000     1.000000     0.000000     0.000000     0.000000     0.000000     0.000000

 Subroutine IBZKPT returns following result:

 Found      2 irreducible k-points:

 Following reciprocal coordinates:
            Coordinates               Weight
  0.250000  0.250000  0.000000      2.000000
 -0.250000  0.250000  0.000000      2.000000

 Following cartesian coordinates:
            Coordinates               Weight
  0.019516  0.020161  0.000000      2.000000
 -0.019516  0.020161  0.000000      2.000000

 Subroutine IBZKPT_HF returns following result:

 Found      4 k-points in 1st BZ
 the following      4 k-points will be used (e.g. in the exchange kernel)
 Following reciprocal coordinates:   # in IRBZ
  0.250000  0.250000  0.000000    0.25000000   1 t-inv F
 -0.250000  0.250000  0.000000    0.25000000   2 t-inv F
 -0.250000 -0.250000  0.000000    0.25000000   1 t-inv T
  0.250000 -0.250000  0.000000    0.25000000   2 t-inv T

 SYSTEM =  unknown system
 POSCAR =   C  N Cu Fe

 Startparameter for this run:
   NWRITE =      2    write-flag & timer
   PREC   = accura    normal or accurate (medium, high low for compatibility)
   ISTART =      1    job   : 0-new  1-cont  2-samecut
   ICHARG =      0    charge: 1-file 2-atom 10-const
   ISPIN  =      2    spin polarized calculation?
   LNONCOLLINEAR =      F non collinear calculations
   LSORBIT =      F    spin-orbit coupling
   INIWAV =      1    electr: 0-lowe 1-rand  2-diag
   LASPH  =      T    aspherical Exc in radial PAW
   METAGGA=      F    non-selfconsistent MetaGGA calc.

 Electronic Relaxation 1
   ENCUT  =  500.0 eV  36.75 Ry    6.06 a.u.  23.36 22.61 36.46*2*pi/ulx,y,z
   ENINI  =  500.0     initial cutoff
   ENAUG  =  644.9 eV  augmentation charge cutoff
   NELM   =    250;   NELMIN=  2; NELMDL=  0     # of ELM steps
   EDIFF  = 0.1E-03   stopping-criterion for ELM
   LREAL  =      F    real-space projection
   NLSPLINE    = F    spline interpolate recip. space projectors
   LCOMPAT=      F    compatible to vasp.4.4
   GGA_COMPAT  = T    GGA compatible to vasp.4.4-vasp.4.6
   LMAXPAW     = -100 max onsite density
   LMAXMIX     =    2 max onsite mixed and CHGCAR
   VOSKOWN=      0    Vosko Wilk Nusair interpolation
   ROPT   =    0.00000   0.00000   0.00000   0.00000
 Ionic relaxation
   EDIFFG = -.3E-01   stopping-criterion for IOM
   NSW    =      0    number of steps for IOM
   NBLOCK =      1;   KBLOCK =      1    inner block; outer block
   IBRION =     -1    ionic relax: 0-MD 1-quasi-New 2-CG
   NFREE  =      1    steps in history (QN), initial steepest desc. (CG)
   ISIF   =      2    stress and relaxation
   IWAVPR =     10    prediction:  0-non 1-charg 2-wave 3-comb
   ISYM   =      3    0-nonsym 1-usesym 2-fastsym
   LCORR  =      T    Harris-Foulkes like correction to forces

   POTIM  = 0.5000    time-step for ionic-motion
   TEIN   =    0.0    initial temperature
   TEBEG  =    0.0;   TEEND  =   0.0 temperature during run
   SMASS  =  -3.00    Nose mass-parameter (am)
   estimated Nose-frequenzy (Omega)   =  0.10E-29 period in steps =****** mass=  -0.375E-26a.u.
   SCALEE = 1.0000    scale energy and forces
   NPACO  =    256;   APACO  = 16.0  distance and # of slots for P.C.
   PSTRESS=    0.0 pullay stress

  Mass of Ions in am
   POMASS =  12.01 14.00 63.55 55.85
  Ionic Valenz
   ZVAL   =   4.00  5.00 11.00  8.00
  Atomic Wigner-Seitz radii
  virtual crystal weights
   VCA    =   1.00  1.00  1.00  1.00
   NELECT =     256.0000    total number of electrons
   NUPDOWN=      -1.0000    fix difference up-down

 DOS related values:
   EMIN   =  10.00;   EMAX   =-10.00  energy-range for DOS
   EFERMI =   0.00
   ISMEAR =     0;   SIGMA  =   0.10  broadening in eV -4-tet -1-fermi 0-gaus

 Electronic relaxation 2 (details)
   IALGO  =     53    algorithm
   LDIAG  =      T    sub-space diagonalisation (order eigenvalues)
   LSUBROT=      F    optimize rotation matrix (better conditioning)
   TURBO    =      0    0=normal 1=particle mesh
   IRESTART =      0    0=no restart 2=restart with 2 vectors
   NREBOOT  =      0    no. of reboots
   NMIN     =      0    reboot dimension
   EREF     =   0.00    reference energy to select bands
   IMIX   =      4    mixing-type and parameters
     AMIX     =   0.40;   BMIX     =  1.00
     AMIX_MAG =   1.60;   BMIX_MAG =  1.00
     AMIN     =   0.10
     WC   =   100.;   INIMIX=   1;  MIXPRE=   1;  MAXMIX= -45

 Intra band minimization:
[...]
   48        0.847   1.742   0.000   2.589
   49        0.863   1.771   0.000   2.634
   50        0.867   1.764   0.000   2.631
   51        0.868   1.765   0.000   2.633
   52        0.865   1.779   0.000   2.645
   53        0.864   1.769   0.000   2.633
   54        1.232   2.686   0.000   3.918
   55        1.228   2.701   0.000   3.929
   56        1.231   2.680   0.000   3.911
   57        1.260   2.579   0.000   3.839
   58        1.230   2.670   0.000   3.900
   59        0.471   0.540   9.297  10.308
   60        0.469   0.611   6.483   7.563
tot         52.891 107.650  15.780 176.321

 magnetization (x)

[...]

  FORCE on cell =-STRESS in cart. coord.  units (eV):
  Direction    XX          YY          ZZ          XY          YZ          ZX
  Alpha Z   108.71076   108.71076   108.71076
  Ewald   50359.62764 50193.11070-58516.29339    73.90415   175.52826    -1.35010
  Hartree 50106.95161 50002.67882-48560.63706    50.40427   167.55444   -15.75327
  E(xc)    -758.13434  -758.09639  -771.99558     0.12781     0.19585     0.19790
  Local  ************************103830.90449  -121.70448  -344.20111    19.42141
  n-local   -92.48462   -93.07314   -83.30656     1.55212    -0.70606     0.49187
  augment   100.02221    98.21499   106.89151     0.40595    -3.22858    -0.45081
  Kinetic  3793.16930  3788.72635  4280.09961   -13.38522     1.71938    -3.42016
  Fock     -418.03427  -415.14072  -396.64506    -1.21790     3.96156    -0.24534
  Total     -34.04450   -43.69838    -2.27127    -9.91330     0.82373    -1.10849
  in kB     -17.16946   -22.03815    -1.14546    -4.99952     0.41543    -0.55904

 VOLUME and BASIS-vectors are now :
  energy-cutoff  :      500.00
  volume of cell :     3176.88
      direct lattice vectors                 reciprocal lattice vectors
    12.810000000  0.000000000  0.000000000     0.078064012  0.000000000  0.000000000
     0.000000000 12.400000000  0.000000000     0.000000000  0.080645161  0.000000000
     0.000000000  0.000000000 20.000000000     0.000000000  0.000000000  0.050000000

  length of vectors
    12.810000000 12.400000000 20.000000000     0.078064012  0.080645161  0.050000000

 FORCES acting on ions:
    Electron-Ion                     Ewald-Force                    Non-Local-Force
   0.577E+01 -.441E+01 0.376E+02   -.568E+01 0.413E+01 -.376E+02   -.371E-01 0.142E+00 0.850E-01
   -.308E-01 -.915E+00 0.443E+02   0.327E+00 0.827E+00 -.443E+02   -.280E+00 0.414E-01 0.513E-01
   0.606E+01 -.174E+00 0.413E+02   -.600E+01 0.157E+00 -.412E+02   -.113E+00 0.382E-01 -.103E+00
   0.152E+02 0.409E+01 0.350E+02   -.154E+02 -.415E+01 -.347E+02   0.269E+00 0.813E-01 -.203E+00
   0.984E+01 0.813E+01 0.256E+02   -.973E+01 -.803E+01 -.256E+02   -.549E-01 -.703E-01 0.743E-01
   0.438E+01 0.881E+01 0.409E+02   -.426E+01 -.919E+01 -.410E+02   -.112E+00 0.310E+00 0.779E-01
   0.528E+01 0.913E+01 0.345E+02   -.521E+01 -.924E+01 -.344E+02   -.119E+00 0.132E+00 -.750E-01
   0.255E+02 0.270E+02 0.994E+01   -.257E+02 -.270E+02 -.971E+01   0.148E+00 -.154E+00 -.242E+00
   0.387E+02 0.616E+02 0.209E+02   -.402E+02 -.643E+02 -.217E+02   0.140E+01 0.292E+01 0.813E+00
   0.171E+02 0.285E+01 0.312E+02   -.172E+02 -.273E+01 -.310E+02   0.117E+00 -.741E-01 -.894E-01
   0.212E+02 0.161E+02 0.357E+02   -.213E+02 -.163E+02 -.358E+02   0.657E-01 0.248E+00 0.136E+00
   0.455E+02 -.517E+02 -.823E+00   -.468E+02 0.548E+02 0.481E+00   0.140E+01 -.316E+01 0.334E+00
   0.888E+01 -.961E+01 0.359E+02   -.885E+01 0.987E+01 -.359E+02   0.299E-01 -.247E+00 -.496E-01
   0.246E+02 -.109E+02 0.293E+02   -.246E+02 0.112E+02 -.295E+02   -.777E-01 -.357E+00 0.183E+00
   0.327E+02 -.249E+02 -.145E+02   -.324E+02 0.248E+02 0.146E+02   -.651E+00 0.203E+00 -.285E+00
   0.145E+02 -.172E+02 0.292E+02   -.142E+02 0.169E+02 -.293E+02   -.230E+00 0.119E+00 0.233E+00
   0.972E+00 -.636E+01 0.492E+02   -.751E+00 0.643E+01 -.493E+02   -.201E+00 -.537E-01 0.920E-01
   0.720E+01 -.774E+01 0.433E+02   -.710E+01 0.783E+01 -.433E+02   -.139E+00 -.574E-01 0.698E-01
   0.130E+02 -.902E+01 0.298E+02   -.131E+02 0.916E+01 -.294E+02   0.849E-01 0.230E-01 -.355E+00
   -.183E+01 -.289E+01 0.624E+02   0.148E+01 0.290E+01 -.622E+02   0.306E+00 -.337E-01 -.124E+00
   0.744E+01 0.790E+01 0.558E+02   -.796E+01 -.822E+01 -.559E+02   0.480E+00 0.305E+00 0.117E+00
   0.596E+01 -.215E+01 0.598E+02   -.616E+01 0.200E+01 -.598E+02   0.202E+00 0.146E+00 0.116E+00
   -.642E+01 0.836E+01 0.749E+02   0.652E+01 -.864E+01 -.750E+02   -.776E-01 0.294E+00 0.161E+00
   -.453E+01 0.202E+02 0.720E+02   0.436E+01 -.206E+02 -.719E+02   0.183E+00 0.484E+00 -.120E+00
   0.424E+02 0.589E+02 0.273E+02   -.446E+02 -.617E+02 -.281E+02   0.238E+01 0.282E+01 0.836E+00
   0.919E+01 0.245E+02 0.598E+02   -.958E+01 -.249E+02 -.599E+02   0.348E+00 0.367E+00 0.141E+00
   -.197E+02 0.278E+02 0.780E+02   0.201E+02 -.286E+02 -.786E+02   -.368E+00 0.592E+00 0.627E+00
   -.428E+02 0.455E+02 0.297E+02   0.444E+02 -.485E+02 -.309E+02   -.170E+01 0.305E+01 0.136E+01
   0.533E+02 -.891E+02 -.695E+02   -.535E+02 0.893E+02 0.689E+02   0.793E+00 -.101E+01 0.142E+01
   0.119E+02 -.500E+02 0.691E+01   -.142E+02 0.526E+02 -.743E+01   0.240E+01 -.280E+01 0.609E+00
   0.916E+01 -.146E+02 0.392E+02   -.928E+01 0.142E+02 -.393E+02   0.196E+00 0.308E+00 0.200E+00
   0.488E+01 -.324E+02 0.745E+00   -.517E+01 0.318E+02 -.747E+00   0.391E+00 0.839E+00 -.100E+00
   -.503E+01 -.169E+02 0.495E+02   0.493E+01 0.172E+02 -.498E+02   0.133E+00 -.106E+00 0.283E+00
   -.672E+01 -.327E+01 0.565E+02   0.687E+01 0.324E+01 -.565E+02   -.169E+00 0.111E-03 0.907E-03
   -.878E+01 0.271E+01 0.682E+02   0.879E+01 -.279E+01 -.681E+02   -.553E-01 0.547E-01 -.117E+00
   -.859E+01 -.800E-01 0.611E+02   0.880E+01 0.180E+00 -.612E+02   -.175E+00 -.457E-01 0.112E+00
   -.318E+01 0.395E+01 0.547E+02   0.344E+01 -.399E+01 -.548E+02   -.244E+00 0.697E-01 0.498E-01
   -.848E+01 0.329E+01 0.576E+02   0.869E+01 -.337E+01 -.576E+02   -.213E+00 0.814E-01 -.374E-01
   -.227E+02 0.118E+02 0.648E+02   0.232E+02 -.120E+02 -.647E+02   -.501E+00 0.180E+00 -.105E+00
   -.108E+02 0.908E+01 0.697E+02   0.111E+02 -.933E+01 -.698E+02   -.243E+00 0.249E+00 0.170E+00
   -.185E+01 0.523E+01 0.508E+02   0.200E+01 -.531E+01 -.508E+02   -.148E+00 0.593E-01 0.803E-01
   -.102E+02 0.530E+01 0.453E+02   0.106E+02 -.517E+01 -.453E+02   -.401E+00 -.115E+00 0.629E-01
   -.637E+02 -.892E+01 0.194E+02   0.669E+02 0.912E+01 -.206E+02   -.336E+01 -.402E+00 0.114E+01
   -.245E+02 0.565E+01 0.489E+02   0.250E+02 -.564E+01 -.491E+02   -.416E+00 0.168E-01 0.149E+00
   -.354E+00 -.207E+01 0.321E+02   0.313E+00 0.222E+01 -.320E+02   0.108E-01 -.129E+00 -.654E-01
   -.773E+01 -.319E+01 0.225E+02   0.772E+01 0.325E+01 -.225E+02   0.397E-01 -.450E-01 0.511E-02
   -.591E+02 -.123E+01 0.196E+02   0.621E+02 0.119E+01 -.206E+02   -.331E+01 0.217E+00 0.108E+01
   -.252E+02 -.169E+01 0.421E+01   0.255E+02 0.175E+01 -.410E+01   -.122E+00 -.114E+00 -.139E+00
   -.147E+01 0.175E+00 0.344E+02   0.157E+01 -.183E+00 -.344E+02   -.132E+00 0.590E-02 -.644E-01
   -.850E+01 -.783E+01 0.482E+02   0.886E+01 0.775E+01 -.483E+02   -.373E+00 0.721E-01 0.116E+00
   -.138E+02 -.129E+02 0.491E+02   0.138E+02 0.131E+02 -.488E+02   -.129E+00 -.249E+00 -.196E+00
   -.202E+02 -.816E+01 0.463E+02   0.207E+02 0.839E+01 -.465E+02   -.376E+00 -.169E+00 0.222E+00
   -.215E+01 -.153E+01 0.526E+02   0.237E+01 0.154E+01 -.526E+02   -.190E+00 0.450E-02 0.343E-01
   0.603E+02 0.108E+02 -.543E+01   -.386E+02 -.105E+02 0.104E+02   -.206E+02 -.290E+00 -.492E+01
   0.472E+01 0.734E+02 -.167E+02   -.145E+02 -.568E+02 0.232E+02   0.930E+01 -.156E+02 -.622E+01
   -.480E+02 -.377E+01 -.384E+02   0.375E+02 0.199E+02 0.447E+02   0.104E+02 -.155E+02 -.637E+01
   0.521E+02 -.151E+03 -.504E+03   -.474E+02 0.146E+03 0.523E+03   -.526E+01 0.542E+01 -.186E+02
   -.308E+02 -.284E+02 -.512E+02   0.216E+02 0.138E+02 0.577E+02   0.897E+01 0.141E+02 -.660E+01
   0.124E+03 0.154E+03 -.722E+03   -.123E+03 -.153E+03 0.721E+03   -.160E+01 -.200E+01 0.205E+01
   -.215E+03 -.198E+02 -.643E+03   0.212E+03 0.219E+02 0.638E+03   0.260E+01 -.276E+01 0.584E+01
   -.539E+00 0.120E+02 0.295E+02   0.142E-12 0.256E-12 0.102E-11   0.484E+00 -.116E+02 -.261E+02

 POSITION                                       TOTAL-FORCE (eV/Angst)
      2.84357      0.00430      9.83288         0.047668     -0.134223      0.039083
      0.72855      1.24704      9.72542        -0.002118     -0.049942      0.025643
      1.42076     12.39958      9.76281        -0.057680      0.027841      0.013986
      3.55376      1.25646      9.84301         0.066032      0.024319      0.004801
      2.87030      2.52170      9.90040         0.041864      0.028317      0.020832
      0.71103      3.72689      9.81177        -0.002540     -0.057995      0.030695
      1.43820      2.49681      9.80658        -0.054223      0.032537      0.008033
      3.59240      3.76890     10.08201        -0.021899     -0.124462     -0.023401
      2.81475      5.01696     10.14650         0.028131      0.477946      0.083094
      0.67175      6.20943      9.94180         0.070171      0.038331      0.020858
      1.39772      4.97401      9.94228         0.012590     -0.011361      0.032099
      2.77432      7.43596     10.28223         0.183026     -0.248427      0.005942
      0.66727      8.68228      9.90633         0.055070     -0.004899      0.037440
      1.37517      7.45147     10.01883        -0.076987     -0.029823      0.048163
      3.50563      8.70256     10.36549        -0.391099      0.071302     -0.224095
      2.82104      9.91456     10.03411         0.084126     -0.196068      0.140123
      0.70278     11.15620      9.75849         0.006390      0.006203      0.053683
      1.39727      9.91418      9.87269        -0.048776      0.030768      0.048841
      3.54286     11.16260      9.95271        -0.041520      0.167297     -0.005252
      7.10434     12.38456      9.77381        -0.028893     -0.024819      0.054073
      4.97276      1.23309      9.80697        -0.017686      0.000435      0.053017
      5.68272     12.39470      9.81951         0.009049      0.001246      0.054044
      7.82978      1.20854      9.68227         0.015760      0.030723      0.046071
      7.12332      2.43568      9.76347         0.030486      0.052795      0.071708
      5.04508      3.69799     10.11627         0.288102      0.174598      0.057441
      5.70222      2.45553      9.85530        -0.014314      0.009727      0.054197
      7.86112      3.64709      9.84684         0.051400     -0.132826      0.030165
      7.17796      4.81916     10.22126        -0.149327      0.249026      0.230862
      4.89452      8.84581     10.78571         0.593868     -0.879929      0.960933
      7.12677      9.95772     10.24123         0.188031     -0.366446      0.128905
      4.97418     11.16503      9.99475         0.089313     -0.055157      0.117567
      5.68497      9.97304     10.31431         0.104012      0.301864     -0.106344
      7.81864     11.15930      9.90065         0.043192      0.123449      0.006360
     11.38981     12.39151      9.66263        -0.035062     -0.040308      0.039531
      9.25482      1.21926      9.64481        -0.045036     -0.027794      0.040936
      9.96241     12.38435      9.67410         0.025476      0.055770      0.017654
     12.11084      1.23351      9.66065         0.003086      0.039738      0.027373
     11.39935      2.46916      9.66410        -0.015411     -0.004186      0.037807
      9.27094      3.67962      9.76697        -0.080095     -0.000562      0.066654
      9.97667      2.45345      9.65272         0.006907      0.015892      0.049930
     12.09656      3.71796      9.73976         0.002983     -0.015799      0.019341
     11.37380      4.95331      9.81655        -0.022851      0.009672      0.024281
      9.20316      6.12239     10.14341        -0.361359     -0.235248      0.057349
      9.95185      4.93064      9.87714         0.063213      0.025234      0.011671
     12.05489      6.20132      9.89302        -0.028326      0.003002     -0.000364
     11.31146      7.43097      9.95292         0.035635      0.005133      0.023030
      9.20440      8.71421     10.14954        -0.513779      0.190502      0.172774
      9.87925      7.42138     10.11257         0.099973     -0.052673     -0.038907
     12.04926      8.66882      9.87502        -0.034316      0.006658      0.006129
     11.36109      9.91021      9.80001        -0.033184     -0.009191      0.048344
      9.24017     11.15805      9.80781        -0.075182     -0.084313      0.054932
      9.93698      9.91510      9.88517         0.066123      0.053628      0.020672
     12.08608     11.14747      9.71742         0.020414      0.019407      0.027824
      3.40138      6.22190     10.41552        -0.686009     -0.078583     -0.362347
      5.83150      4.78399     10.42729         0.360891     -0.383102     -0.199543
      7.86043      5.99917     10.45647         0.783221     -0.727187     -0.653004
      5.46993      8.01052     11.66518        -1.023054      1.170554     -1.012392
      7.86808      8.80671     10.48957         0.587734      0.749671     -0.682560
      5.09915      6.25942     11.30306        -0.016685      0.018284     -0.027684
      7.12319      7.44000     11.47028        -0.186526     -0.236547      0.110999
    total drift:                                0.002142      0.003634      0.002236

  FREE ENERGIE OF THE ION-ELECTRON SYSTEM (eV)
  free  energy   TOTEN  =      -622.52559975 eV

  energy  without entropy=     -622.52559975  energy(sigma->0) =     -622.52559975

 stress matrix after NEB project (eV)
    -34.04450     -9.91361     -1.10849
     -9.91330    -43.69838      0.82426
     -1.10955      0.82373     -2.27127
  FORCES: max atom, RMS     1.855202    0.436593
  FORCE total and by dimension    3.381835    1.170554
  Stress total and by dimension   57.219806   43.698384
 writing wavefunctions
 vacuum level on the upper side and lower side of the slab         1.553         1.531

 total charge

[...]

 magnetization (x)

# of ion       s       p       d       tot
    1       -0.000  -0.001   0.000  -0.001
    2        0.000   0.000   0.000   0.000
    3        0.000   0.000   0.000   0.001
    4       -0.000  -0.000   0.000  -0.000
    5        0.000   0.001   0.000   0.001
    6        0.000  -0.000   0.000  -0.000
    7       -0.000  -0.001   0.000  -0.001
    8        0.000  -0.000   0.000  -0.000
    9        0.000   0.001   0.000   0.001
   10        0.000   0.002   0.000   0.002
   11       -0.000  -0.001   0.000  -0.002
   12       -0.000  -0.002   0.000  -0.002
   13       -0.000  -0.002   0.000  -0.002
   14        0.000  -0.000   0.000  -0.000
   15        0.001   0.005   0.000   0.006
   16       -0.000  -0.003   0.000  -0.004
   17        0.000   0.000   0.000   0.000
   18        0.000   0.001   0.000   0.001
   19        0.000   0.001   0.000   0.001
   20       -0.000  -0.002   0.000  -0.002
   21        0.000   0.000   0.000   0.000
   22        0.000  -0.000   0.000  -0.000
   23       -0.000  -0.000   0.000  -0.000
   24        0.000   0.001   0.000   0.001
   25       -0.000  -0.000   0.000  -0.000
   26       -0.000  -0.000   0.000  -0.000
   27       -0.000  -0.002   0.000  -0.002
   28        0.000   0.004   0.000   0.004
   29       -0.003  -0.033   0.000  -0.036
   30       -0.000  -0.009   0.000  -0.009
   31       -0.000  -0.001   0.000  -0.001
   32        0.001   0.004   0.000   0.004
   33        0.000   0.002   0.000   0.002
   34        0.000   0.001   0.000   0.001
   35       -0.000  -0.001   0.000  -0.001
   36       -0.000  -0.001   0.000  -0.001
   37       -0.000  -0.001   0.000  -0.001
   38        0.000   0.002   0.000   0.002
   39        0.000   0.003   0.000   0.004
   40       -0.000  -0.001   0.000  -0.001
   41       -0.000  -0.001   0.000  -0.001
   42        0.000   0.001   0.000   0.001
   43        0.001   0.009   0.000   0.010
   44       -0.000  -0.002   0.000  -0.002
   45       -0.000  -0.002   0.000  -0.002
   46        0.000   0.001   0.000   0.001
   47       -0.000   0.002   0.000   0.002
   48       -0.001  -0.005   0.000  -0.006
   49       -0.000  -0.002   0.000  -0.002
   50        0.000   0.001   0.000   0.001
   51       -0.000  -0.002   0.000  -0.002
   52       -0.000  -0.003   0.000  -0.003
   53       -0.000  -0.001   0.000  -0.001
   54       -0.000  -0.000   0.000  -0.001
   55       -0.000   0.000   0.000  -0.000
   56       -0.001  -0.004   0.000  -0.005
   57        0.002   0.044   0.000   0.046
   58       -0.000  -0.009   0.000  -0.009
   59        0.001   0.005   0.002   0.009
   60       -0.000   0.012  -0.002   0.010
tot          0.001   0.009  -0.000   0.009