 vasp.5.4.4.18Apr17-6-g9f103f2a35 (build Feb 25 2019 10:51:38) complex

 executed on             LinuxIFC date 2021.06.15  21:42:27

 INCAR:
 POTCAR:    PAW_PBE C 08Apr2002
 POTCAR:    PAW_PBE N 08Apr2002
 POTCAR:    PAW_PBE Fe 06Sep2000
 POTCAR:    PAW_PBE V 08Apr2002

 POTCAR:    PAW_PBE C 08Apr2002
   VRHFIN =C: s2p2

   TITEL  = PAW_PBE C 08Apr2002
   POMASS =   12.011; ZVAL   =    4.000    mass and valenz
   ENMAX  =  400.000; ENMIN  =  300.000 eV

 POTCAR:    PAW_PBE N 08Apr2002
   VRHFIN =N: s2p3

[...]

 POTCAR:    PAW_PBE Fe 06Sep2000
   VRHFIN =Fe:  d7 s1

   TITEL  = PAW_PBE Fe 06Sep2000
   POMASS =   55.847; ZVAL   =    8.000    mass and valenz
   ENMAX  =  267.882; ENMIN  =  200.911 eV

 POTCAR:    PAW_PBE V 08Apr2002
   VRHFIN =V: p6 d4 s1

   TITEL  = PAW_PBE V 08Apr2002
   POMASS =   50.941; ZVAL   =    5.000    mass and valenz
   ENMAX  =  192.543; ENMIN  =  144.408 eV

  PAW_PBE C 08Apr2002                   :
  PAW_PBE N 08Apr2002                   :
  PAW_PBE Fe 06Sep2000                  :
  PAW_PBE V 08Apr2002                   :

 POSCAR:  C  N Fe  V
  positions in cartesian coordinates
 exchange correlation table for  LEXCH =        8
   RHO(1)=    0.500       N(1)  =     2000
   RHO(2)=  100.500       N(2)  =     4000

 VTST: version 3.2, (02/03/18)

 CHAIN: initializing optimizer

 OPT: Using VASP Conjugate-Gradient optimizer
 CHAIN: Read ICHAIN            0

 POSCAR:  C  N Fe  V
  positions in cartesian coordinates

 ion  position               nearest neighbor table
   1  0.223  0.003  0.499-  19 1.43   4 1.43   3 1.43
   2  0.058  0.102  0.498-   3 1.42   7 1.44  38 1.44
   3  0.112  0.002  0.498-   2 1.42  17 1.43   1 1.43
   4  0.280  0.104  0.500-  21 1.43   1 1.43   5 1.44
   5  0.227  0.206  0.500-   7 1.44   4 1.44   8 1.45
   6  0.059  0.302  0.497-   7 1.43  11 1.43  42 1.44
   7  0.115  0.203  0.498-   6 1.43   2 1.44   5 1.44
   8  0.284  0.308  0.501-  25 1.45   5 1.45   9 1.46
   9  0.226  0.409  0.500-  55 1.38  11 1.45   8 1.46
  10  0.055  0.501  0.497-  46 1.42  14 1.42  11 1.43
  11  0.114  0.404  0.498-   6 1.43  10 1.43   9 1.45
  12  0.217  0.604  0.500-  55 1.39  14 1.40  15 1.42
  13  0.053  0.702  0.497-  18 1.42  50 1.42  14 1.43
  14  0.108  0.603  0.497-  12 1.40  10 1.42  13 1.43
  15  0.273  0.705  0.500-  58 1.38  16 1.41  12 1.42
  16  0.219  0.803  0.499-  15 1.41  19 1.42  18 1.42
  17  0.054  0.902  0.497-  18 1.42   3 1.43  54 1.43
  18  0.108  0.803  0.497-  13 1.42  17 1.42  16 1.42
  19  0.277  0.903  0.500-  16 1.42  32 1.43   1 1.43
  20  0.555  0.995  0.500-  22 1.43  23 1.43  34 1.44
  21  0.391  0.101  0.500-  26 1.43   4 1.43  22 1.45
  22  0.445  0.999  0.500-  32 1.43  20 1.43  21 1.45
  23  0.612  0.096  0.498-  24 1.43  20 1.43  36 1.43
  24  0.558  0.197  0.498-  27 1.42  26 1.43  23 1.43
  25  0.396  0.305  0.501-  56 1.38   8 1.45  26 1.45
  26  0.448  0.201  0.499-  24 1.43  21 1.43  25 1.45
  27  0.616  0.296  0.497-  28 1.41  24 1.42  40 1.42
  28  0.562  0.395  0.499-  56 1.38  27 1.41  29 1.42
  29  0.618  0.495  0.499-  57 1.39  44 1.40  28 1.42
  30  0.609  0.690  0.501-  57 1.38  48 1.45  31 1.46
  31  0.551  0.791  0.502-  33 1.45  34 1.45  30 1.46
  32  0.387  0.898  0.501-  19 1.43  22 1.43  33 1.45
  33  0.439  0.794  0.502-  58 1.38  31 1.45  32 1.45
  34  0.608  0.893  0.500-  52 1.44  20 1.44  31 1.45
  35  0.888  0.999  0.497-  54 1.42  38 1.43  37 1.44
  36  0.723  0.097  0.497-  37 1.42  41 1.43  23 1.43
  37  0.777  0.997  0.498-  36 1.42  52 1.44  35 1.44
  38  0.946  0.100  0.497-  39 1.42  35 1.43   2 1.44
  39  0.891  0.199  0.496-  38 1.42  42 1.43  41 1.43
  40  0.726  0.296  0.495-  45 1.42  41 1.42  27 1.42
  41  0.780  0.197  0.496-  40 1.42  36 1.43  39 1.43
  42  0.948  0.300  0.496-  43 1.43  39 1.43   6 1.44
  43  0.891  0.398  0.495-  46 1.42  45 1.42  42 1.43
  44  0.726  0.496  0.497-  29 1.40  49 1.42  45 1.43
  45  0.781  0.397  0.495-  40 1.42  43 1.42  44 1.43
  46  0.945  0.500  0.496-  10 1.42  43 1.42  47 1.44
  47  0.889  0.599  0.496-  49 1.42  50 1.42  46 1.44
  48  0.721  0.696  0.499-  53 1.43  49 1.43  30 1.45
  49  0.779  0.598  0.497-  47 1.42  44 1.42  48 1.43
  50  0.943  0.701  0.497-  47 1.42  13 1.42  51 1.43
  51  0.887  0.799  0.497-  50 1.43  54 1.43  53 1.44
  52  0.720  0.896  0.499-  53 1.43  37 1.44  34 1.44
  53  0.776  0.797  0.498-  52 1.43  48 1.43  51 1.44
  54  0.943  0.900  0.497-  35 1.42  51 1.43  17 1.43
  55  0.275  0.510  0.503-   9 1.38  12 1.39  59 1.91
  56  0.456  0.400  0.503-  28 1.38  25 1.38  59 1.93
  57  0.561  0.589  0.503-  30 1.38  29 1.39  59 1.91
  58  0.380  0.700  0.504-  15 1.38  33 1.38  59 1.93
  59  0.419  0.550  0.514-  57 1.91  55 1.91  56 1.93  58 1.93  60 1.99
  60  0.431  0.551  0.613-  59 1.99

  LATTYP: Found a triclinic cell.
 ALAT       =    17.9935780224
 B/A-ratio  =     0.6847053979
 C/A-ratio  =     1.8830818765
 COS(alpha) =     0.0028351724
 COS(beta)  =     0.5818428677
 COS(gamma) =     0.6963286223

  Lattice vectors:

 A1 = (  13.1155959294, -12.3186847295,   0.0000000000)
 A2 = (   0.1994959294, -12.3186847295,   0.0000000000)
 A3 = (  27.3733015636,   0.3472213088, -19.9666042264)

Analysis of symmetry for initial positions (statically):
 Subroutine PRICEL returns:
 Original cell was already a primitive cell.

 Routine SETGRP: Setting up the symmetry group for a
 triclinic supercell.

 Subroutine GETGRP returns: Found  1 space group operations
 (whereof  1 operations were pure point group operations)
 out of a pool of  2 trial point group operations.

The static configuration has the point symmetry C_1 .

Analysis of symmetry for dynamics (positions and initial velocities):
 Subroutine PRICEL returns:
 Original cell was already a primitive cell.

[...]

The dynamic configuration has the point symmetry C_1 .

Analysis of structural, dynamic, and magnetic symmetry:
 Subroutine PRICEL returns:
 Original cell was already a primitive cell.

 Routine SETGRP: Setting up the symmetry group for a
 triclinic supercell.

 Subroutine GETGRP returns: Found  1 space group operations
 (whereof  1 operations were pure point group operations)
 out of a pool of  2 trial point group operations.

The magnetic configuration has the point symmetry C_1 .

 Subroutine INISYM returns: Found  1 space group operations
 (whereof  1 operations are pure point group operations),
 and found     1 'primitive' translations

 KPOINTS: KPOINTS created by Atomic Simulation Env

Automatic generation of k-mesh.
Space group operators:
 irot       det(A)        alpha          n_x          n_y          n_z        tau_x        tau_y        tau_z
    1     1.000000     0.000001     1.000000     0.000000     0.000000     0.000000     0.000000     0.000000

 Subroutine IBZKPT returns following result:

 Found      2 irreducible k-points:

 Following reciprocal coordinates:
            Coordinates               Weight
  0.250000  0.250000 -0.000000      2.000000
 -0.250000  0.250000  0.000000      2.000000

 Following cartesian coordinates:
            Coordinates               Weight
  0.019356  0.020608  0.001852      2.000000
 -0.019356  0.019981 -0.001146      2.000000

 Subroutine IBZKPT_HF returns following result:

 Found      4 k-points in 1st BZ
 the following      4 k-points will be used (e.g. in the exchange kernel)
 Following reciprocal coordinates:   # in IRBZ
  0.250000  0.250000 -0.000000    0.25000000   1 t-inv F
 -0.250000  0.250000  0.000000    0.25000000   2 t-inv F
 -0.250000 -0.250000  0.000000    0.25000000   1 t-inv T
  0.250000 -0.250000 -0.000000    0.25000000   2 t-inv T

 SYSTEM =  unknown system
 POSCAR =   C  N Fe  V

 Startparameter for this run:
   NWRITE =      2    write-flag & timer
   PREC   = accura    normal or accurate (medium, high low for compatibility)
   ISTART =      1    job   : 0-new  1-cont  2-samecut
   ICHARG =      0    charge: 1-file 2-atom 10-const
   ISPIN  =      2    spin polarized calculation?
   LNONCOLLINEAR =      F non collinear calculations
   LSORBIT =      F    spin-orbit coupling
   INIWAV =      1    electr: 0-lowe 1-rand  2-diag
   LASPH  =      T    aspherical Exc in radial PAW
   METAGGA=      F    non-selfconsistent MetaGGA calc.

 Electronic Relaxation 1
   ENCUT  =  500.0 eV  36.75 Ry    6.06 a.u.  23.55 22.46 36.52*2*pi/ulx,y,z
   ENINI  =  500.0     initial cutoff
   ENAUG  =  644.9 eV  augmentation charge cutoff
   NELM   =    250;   NELMIN=  2; NELMDL=  0     # of ELM steps
   EDIFF  = 0.1E-03   stopping-criterion for ELM
   LREAL  =      F    real-space projection
   NLSPLINE    = F    spline interpolate recip. space projectors
   LCOMPAT=      F    compatible to vasp.4.4
   GGA_COMPAT  = T    GGA compatible to vasp.4.4-vasp.4.6
   LMAXPAW     = -100 max onsite density
   LMAXMIX     =    2 max onsite mixed and CHGCAR
   VOSKOWN=      0    Vosko Wilk Nusair interpolation
   ROPT   =    0.00000   0.00000   0.00000   0.00000
 Ionic relaxation
   EDIFFG = -.3E-01   stopping-criterion for IOM
   NSW    =      0    number of steps for IOM
   NBLOCK =      1;   KBLOCK =      1    inner block; outer block
   IBRION =     -1    ionic relax: 0-MD 1-quasi-New 2-CG
   NFREE  =      1    steps in history (QN), initial steepest desc. (CG)
   ISIF   =      2    stress and relaxation
   IWAVPR =     10    prediction:  0-non 1-charg 2-wave 3-comb
   ISYM   =      3    0-nonsym 1-usesym 2-fastsym
   LCORR  =      T    Harris-Foulkes like correction to forces

   POTIM  = 0.5000    time-step for ionic-motion
   TEIN   =    0.0    initial temperature
   TEBEG  =    0.0;   TEEND  =   0.0 temperature during run
   SMASS  =  -3.00    Nose mass-parameter (am)
   estimated Nose-frequenzy (Omega)   =  0.10E-29 period in steps =****** mass=  -0.381E-26a.u.
   SCALEE = 1.0000    scale energy and forces
   NPACO  =    256;   APACO  = 16.0  distance and # of slots for P.C.
   PSTRESS=    0.0 pullay stress

  Mass of Ions in am
   POMASS =  12.01 14.00 55.85 50.94
  Ionic Valenz
   ZVAL   =   4.00  5.00  8.00  5.00
  Atomic Wigner-Seitz radii
  virtual crystal weights
   VCA    =   1.00  1.00  1.00  1.00
   NELECT =     249.0000    total number of electrons
   NUPDOWN=      -1.0000    fix difference up-down

 DOS related values:
   EMIN   =  10.00;   EMAX   =-10.00  energy-range for DOS
   EFERMI =   0.00
   ISMEAR =     0;   SIGMA  =   0.10  broadening in eV -4-tet -1-fermi 0-gaus

 Electronic relaxation 2 (details)
   IALGO  =     53    algorithm
   LDIAG  =      T    sub-space diagonalisation (order eigenvalues)
   LSUBROT=      F    optimize rotation matrix (better conditioning)
   TURBO    =      0    0=normal 1=particle mesh
   IRESTART =      0    0=no restart 2=restart with 2 vectors
   NREBOOT  =      0    no. of reboots
   NMIN     =      0    reboot dimension
   EREF     =   0.00    reference energy to select bands
   IMIX   =      4    mixing-type and parameters
     AMIX     =   0.40;   BMIX     =  1.00
     AMIX_MAG =   1.60;   BMIX_MAG =  1.00
     AMIN     =   0.10
     WC   =   100.;   INIMIX=   1;  MIXPRE=   1;  MAXMIX= -45

 Intra band minimization:
   WEIMIN = 0.0000     energy-eigenvalue tresh-hold
   EBREAK =  0.16E-06  absolut break condition
[...]
   46        0.866   1.782   0.000   2.648
   47        0.866   1.782   0.000   2.648
   48        0.862   1.760   0.000   2.622
   49        0.869   1.776   0.000   2.644
   50        0.870   1.777   0.000   2.647
   51        0.865   1.765   0.000   2.629
   52        0.861   1.759   0.000   2.620
   53        0.864   1.762   0.000   2.626
   54        0.866   1.770   0.000   2.636
   55        1.228   2.665   0.000   3.893
   56        1.231   2.660   0.000   3.890
   57        1.228   2.665   0.000   3.893
   58        1.231   2.659   0.000   3.890
   59        0.500   0.673   6.598   7.771
   60        0.455   0.129   3.648   4.231
tot         52.502 106.570  10.245 169.317

 magnetization (x)

[...]

  FORCE on cell =-STRESS in cart. coord.  units (eV):
  Direction    XX          YY          ZZ          XY          YZ          ZX
  Alpha Z   105.30710   105.30710   105.30710
  Ewald   48721.30982 48755.74785-57073.78165    40.53759     3.70289    -1.14584
  Hartree 48086.30626 48086.96421-47453.39808     2.33483     4.29693    -1.15527
  E(xc)    -721.61506  -721.48167  -736.35888     0.06713     0.00374     0.00086
  Local  -99486.06221-99511.84276101366.20959   -34.31710    -8.10238     2.24325
  n-local  -176.03930  -175.87847  -177.99284     0.79526     0.08379     0.00727
  augment    37.54021    37.40656    33.77025    -0.04305     0.04653     0.02234
  Kinetic  3696.77870  3688.31058  4212.67396   -11.17363     0.01166     0.04905
  Fock     -310.72066  -310.49288  -276.03297    -0.08456    -0.04325    -0.02120
  Total     -47.19515   -45.95949     0.39648    -1.88354    -0.00010     0.00047
  in kB     -23.80170   -23.17853     0.19996    -0.94992    -0.00005     0.00024

 VOLUME and BASIS-vectors are now :
  energy-cutoff  :      500.00
  volume of cell :     3176.87
      direct lattice vectors                 reciprocal lattice vectors
    12.916100000  0.000000000  0.000000000     0.077422751  0.001253829  0.005997599
    -0.199495929 12.318684729  0.000000000     0.000000000  0.081177498  0.001411685
    -1.541101564 -0.347221309 19.966604226     0.000000000  0.000000000  0.050083629

  length of vectors
    12.916100000 12.320300000 20.029000000     0.077664829  0.081189771  0.050083629

 FORCES acting on ions:
    Electron-Ion                     Ewald-Force                    Non-Local-Force
   0.373E+01 -.720E+01 0.405E+01   -.397E+01 0.754E+01 -.409E+01   0.226E+00 -.272E+00 0.401E-01
   0.371E+01 -.293E+01 0.631E+01   -.365E+01 0.293E+01 -.633E+01   -.500E-01 -.894E-02 0.221E-01
   0.166E+01 -.378E+01 0.541E+01   -.172E+01 0.380E+01 -.540E+01   0.673E-01 -.207E-01 -.754E-02
   0.484E+01 -.122E+01 0.227E+01   -.499E+01 0.125E+01 -.225E+01   0.146E+00 -.975E-01 -.284E-01
   0.371E+01 0.611E+01 0.325E+01   -.376E+01 -.590E+01 -.328E+01   0.943E-02 -.166E+00 0.367E-01
   0.539E+01 0.923E+01 0.110E+02   -.536E+01 -.952E+01 -.111E+02   -.405E-01 0.331E+00 0.326E-01
   0.974E+00 0.769E+01 0.589E+01   -.853E+00 -.784E+01 -.588E+01   -.729E-01 0.108E+00 -.141E-01
   0.133E+02 0.216E+02 0.388E+01   -.134E+02 -.217E+02 -.393E+01   0.431E-01 0.483E-02 0.543E-01
   0.246E+02 0.539E+02 0.125E+02   -.259E+02 -.570E+02 -.127E+02   0.129E+01 0.329E+01 0.162E+00
   0.145E+02 0.975E+01 0.141E+02   -.149E+02 -.993E+01 -.141E+02   0.349E+00 0.180E+00 -.180E-01
   0.121E+02 0.167E+02 0.136E+02   -.124E+02 -.170E+02 -.137E+02   0.213E+00 0.253E+00 0.228E-01
   0.467E+02 -.235E+02 0.231E+02   -.486E+02 0.260E+02 -.234E+02   0.178E+01 -.263E+01 0.272E+00
   0.130E+02 -.531E+01 0.154E+02   -.131E+02 0.571E+01 -.155E+02   0.139E+00 -.312E+00 0.305E-01
   0.279E+02 -.637E+01 0.184E+02   -.283E+02 0.666E+01 -.184E+02   0.498E+00 -.260E+00 0.411E-01
   0.457E+02 -.318E+02 0.206E+02   -.489E+02 0.321E+02 -.209E+02   0.328E+01 -.143E+00 0.318E+00
   0.180E+02 -.234E+02 0.139E+02   -.185E+02 0.237E+02 -.140E+02   0.516E+00 -.317E+00 0.642E-01
   0.697E+01 -.936E+01 0.871E+01   -.706E+01 0.950E+01 -.874E+01   0.561E-01 -.120E+00 0.331E-01
   0.973E+01 -.128E+02 0.132E+02   -.101E+02 0.128E+02 -.132E+02   0.373E+00 -.776E-01 0.121E-01
   0.375E+01 -.218E+02 0.511E+01   -.379E+01 0.222E+02 -.508E+01   0.881E-01 -.430E+00 -.318E-01
   -.483E+01 0.134E+01 0.215E+01   0.499E+01 -.138E+01 -.212E+01   -.146E+00 0.992E-01 -.266E-01
   0.680E+00 0.830E+01 0.418E+01   -.913E+00 -.844E+01 -.422E+01   0.234E+00 0.154E+00 0.366E-01
   -.683E+00 -.811E+01 0.322E+01   0.927E+00 0.825E+01 -.327E+01   -.234E+00 -.153E+00 0.397E-01
   -.367E+01 0.735E+01 0.714E+01   0.392E+01 -.769E+01 -.718E+01   -.224E+00 0.274E+00 0.404E-01
   -.377E+01 0.219E+02 0.104E+02   0.383E+01 -.223E+02 -.103E+02   -.929E-01 0.428E+00 -.246E-01
   0.305E+02 0.512E+02 0.978E+01   -.326E+02 -.538E+02 -.991E+01   0.227E+01 0.283E+01 0.154E+00
   0.698E+01 0.181E+02 0.830E+01   -.705E+01 -.185E+02 -.832E+01   0.109E+00 0.303E+00 0.134E-01
   -.179E+02 0.233E+02 0.207E+02   0.185E+02 -.236E+02 -.208E+02   -.516E+00 0.314E+00 0.742E-01
   -.456E+02 0.315E+02 0.266E+02   0.488E+02 -.317E+02 -.269E+02   -.328E+01 0.136E+00 0.344E+00
   -.466E+02 0.231E+02 0.264E+02   0.485E+02 -.256E+02 -.267E+02   -.178E+01 0.262E+01 0.314E+00
   -.245E+02 -.541E+02 0.927E+01   0.257E+02 0.572E+02 -.939E+01   -.129E+01 -.328E+01 0.138E+00
   -.133E+02 -.216E+02 0.105E+00   0.133E+02 0.217E+02 -.150E+00   -.413E-01 -.521E-02 0.412E-01
   -.702E+01 -.180E+02 0.433E+01   0.710E+01 0.184E+02 -.435E+01   -.112E+00 -.302E+00 0.614E-02
   -.304E+02 -.512E+02 0.561E+01   0.326E+02 0.539E+02 -.575E+01   -.227E+01 -.282E+01 0.162E+00
   -.361E+01 -.603E+01 0.812E+00   0.366E+01 0.583E+01 -.853E+00   -.852E-02 0.167E+00 0.354E-01
   0.299E+01 -.351E+01 0.640E+01   -.300E+01 0.359E+01 -.642E+01   0.160E-01 -.348E-01 0.133E-01
   -.166E+01 0.382E+01 0.854E+01   0.174E+01 -.383E+01 -.853E+01   -.653E-01 0.186E-01 -.108E-03
   -.366E+01 0.298E+01 0.556E+01   0.361E+01 -.297E+01 -.558E+01   0.546E-01 0.791E-02 0.185E-01
   -.299E+01 0.354E+01 0.801E+01   0.301E+01 -.361E+01 -.802E+01   -.116E-01 0.351E-01 0.188E-01
   -.183E+01 0.367E+01 0.121E+02   0.183E+01 -.373E+01 -.121E+02   -.282E-01 0.707E-01 0.163E-01
   -.972E+01 0.128E+02 0.200E+02   0.101E+02 -.128E+02 -.200E+02   -.373E+00 0.785E-01 0.225E-01
   -.695E+01 0.941E+01 0.142E+02   0.705E+01 -.955E+01 -.142E+02   -.566E-01 0.121E+00 0.347E-01
   -.363E+01 0.740E+01 0.138E+02   0.370E+01 -.751E+01 -.138E+02   -.450E-01 0.963E-01 0.373E-01
   -.398E+01 0.717E+01 0.163E+02   0.404E+01 -.717E+01 -.163E+02   -.496E-01 0.324E-01 0.103E-01
   -.279E+02 0.623E+01 0.212E+02   0.283E+02 -.652E+01 -.212E+02   -.498E+00 0.259E+00 0.477E-01
   -.129E+02 0.522E+01 0.208E+02   0.131E+02 -.563E+01 -.208E+02   -.136E+00 0.312E+00 0.354E-01
   0.362E+01 -.488E+00 0.144E+02   -.372E+01 0.481E+00 -.144E+02   0.163E+00 -.489E-01 0.267E-01
   -.362E+01 0.471E+00 0.126E+02   0.374E+01 -.463E+00 -.126E+02   -.165E+00 0.516E-01 0.223E-01
   -.121E+02 -.168E+02 0.100E+02   0.124E+02 0.171E+02 -.101E+02   -.209E+00 -.251E+00 0.120E-01
   -.145E+02 -.984E+01 0.127E+02   0.149E+02 0.100E+02 -.127E+02   -.351E+00 -.179E+00 -.264E-01
   0.398E+01 -.722E+01 0.114E+02   -.404E+01 0.723E+01 -.114E+02   0.524E-01 -.320E-01 0.288E-02
   0.360E+01 -.741E+01 0.817E+01   -.366E+01 0.752E+01 -.820E+01   0.455E-01 -.963E-01 0.295E-01
   -.940E+00 -.766E+01 0.291E+01   0.828E+00 0.782E+01 -.289E+01   0.731E-01 -.107E+00 -.196E-01
   -.536E+01 -.927E+01 0.634E+01   0.534E+01 0.956E+01 -.637E+01   0.414E-01 -.328E+00 0.263E-01
   0.184E+01 -.367E+01 0.708E+01   -.182E+01 0.373E+01 -.708E+01   0.281E-01 -.715E-01 0.614E-02
   0.118E+02 0.376E+02 0.183E+02   0.755E+01 -.367E+02 -.177E+02   -.184E+02 -.885E+00 -.638E+00
   0.281E+02 0.283E+02 0.156E+02   -.377E+02 -.109E+02 -.149E+02   0.902E+01 -.165E+02 -.702E+00
   -.117E+02 -.380E+02 0.172E+02   -.773E+01 0.371E+02 -.165E+02   0.184E+02 0.897E+00 -.695E+00
   -.282E+02 -.287E+02 0.970E+01   0.378E+02 0.113E+02 -.903E+01   -.903E+01 0.165E+02 -.650E+00
   -.337E+00 -.654E+00 -.378E+02   0.384E+00 0.754E+00 0.283E+02   -.349E-01 -.753E-01 0.672E+01
   -.216E+00 0.215E+01 -.604E+03   0.241E+00 -.213E+01 0.604E+03   -.182E-01 -.326E-01 0.229E+01
   0.372E+00 0.175E+00 -.959E+01   -.377E-12 -.185E-12 0.227E-12   -.337E-01 -.926E-01 0.905E+01

 POSITION                                       TOTAL-FORCE (eV/Angst)
      2.10617     -0.13471      9.96290        -0.010259      0.052880     -0.003034
     -0.04353      1.08228      9.93371         0.004090     -0.019395      0.000978
      0.67251     -0.14718      9.94275        -0.007847      0.000285      0.000459
      2.82319      1.10440      9.97393         0.000763     -0.071860     -0.006529
      2.11718      2.36190      9.97340        -0.047469      0.020442     -0.000396
     -0.06305      3.54660      9.92347        -0.018951      0.058416      0.004825
      0.67819      2.32544      9.94421         0.034375     -0.033532     -0.000840
      2.83638      3.62572     10.00077        -0.022340     -0.079125      0.004535
      2.06879      4.86468      9.99236         0.076806      0.394745      0.037765
     -0.15113      6.00364      9.92072        -0.059704      0.018174      0.002201
      0.62555      4.79846      9.93843        -0.029649     -0.062544      0.003942
      1.91696      7.26578      9.97819        -0.016481     -0.222161      0.032716
     -0.22153      8.48092      9.91673        -0.001702      0.080951      0.008831
      0.51306      7.25768      9.92922         0.140495      0.007793      0.024122
      2.61494      8.50686      9.99276         0.242519      0.074127      0.042135
      1.89790      9.72314      9.95685         0.002399     -0.069626      0.017112
     -0.24901     10.93856      9.92951        -0.034250      0.009460      0.004867
      0.47340      9.71437      9.92873        -0.030590     -0.061841      0.008704
      2.62439     10.94541      9.97420         0.043771     -0.053741     -0.007457
      6.20427     12.08911      9.97477        -0.001166      0.073615     -0.005855
      4.25414      1.06624      9.97534         0.004206      0.029304      0.000206
      4.77332     12.12723      9.98115        -0.003283     -0.031038     -0.003121
      7.12061      1.00953      9.94646         0.010674     -0.052138      0.004462
      6.40305      2.24822      9.94661        -0.047129      0.052446      0.005598
      4.28734      3.58366     10.00585         0.268052      0.322815      0.028844
      4.97384      2.30310      9.97225         0.041118     -0.084492     -0.003930
      7.12935      3.47059      9.92202        -0.001033      0.066485      0.030000
      6.41253      4.68686      9.96429        -0.241503     -0.077347      0.057247
      7.11067      5.92795      9.96218         0.015153      0.221410      0.043242
      6.95892      8.32866     10.00591        -0.076034     -0.396004      0.021397
      6.19128      9.56771     10.01984         0.022903      0.077317     -0.005010
      4.05370     10.89037      9.99363        -0.042247      0.083234     -0.014316
      4.74027      9.60965     10.02869        -0.268184     -0.321521      0.019814
      6.91028     10.83160      9.98642         0.046823     -0.021217     -0.006201
     10.50945     12.13786      9.92661         0.004301      0.029530     -0.004492
      8.55420      1.02207      9.92623         0.009393     -0.001320      0.006244
      9.07067     12.11128      9.93649        -0.000068      0.017844     -0.002974
     11.43379      1.05570      9.91870        -0.001074     -0.029432      0.002964
     10.70671      2.27880      9.90178        -0.038564      0.010428      0.009543
      8.55390      3.47925      9.89345         0.031623      0.063554      0.017374
      9.27629      2.25495      9.90040         0.032924     -0.007822      0.014129
     11.41682      3.52022      9.89906         0.012257     -0.005007      0.010542
     10.67124      4.73623      9.89033         0.004284      0.030135      0.008234
      8.51459      5.93612      9.91392        -0.141571     -0.010366      0.027884
      9.24896      4.71283      9.88825         0.004466     -0.081598      0.014235
     11.34657      5.98406      9.90191         0.063321     -0.067837      0.003269
     10.59736      7.20957      9.91026        -0.066628      0.068270     -0.001919
      8.40220      8.39501      9.95471         0.030909      0.064031     -0.005007
      9.17896      7.19002      9.92530         0.056028     -0.019467     -0.005000
     11.27243      8.45743      9.91532        -0.003109     -0.030280     -0.001367
     10.52686      9.67330      9.92726        -0.013299      0.006473     -0.001113
      8.34927     10.86806      9.95914        -0.036472      0.034620     -0.006200
      9.09068      9.64687      9.94648         0.018351     -0.055717     -0.003995
     11.23674     10.91476      9.92711         0.037493     -0.010321     -0.002545
      2.67614      6.10651     10.04415        -0.612124     -0.129575     -0.014877
      5.03507      4.74736     10.04723         0.242939     -0.613205     -0.023384
      6.35187      7.08631     10.04499         0.608498      0.132843     -0.022059
      3.99281      8.44587     10.07011        -0.243740      0.614283     -0.024023
      4.51428      6.59540     10.25869         0.001401      0.003858     -0.798567
      4.51067      6.57768     12.24950         0.004132     -0.000239      0.455791
    total drift:                                0.335875      0.074763      0.090827

  FREE ENERGIE OF THE ION-ELECTRON SYSTEM (eV)
  free  energy   TOTEN  =      -631.97810997 eV

  energy  without entropy=     -631.97810988  energy(sigma->0) =     -631.97810992

 stress matrix after NEB project (eV)
    -47.19515     -1.88358      0.00047
     -1.88354    -45.95949     -0.00012
      0.00047     -0.00010      0.39648
  FORCES: max atom, RMS     0.798578    0.245322
  FORCE total and by dimension    1.900258    0.798567
  Stress total and by dimension   65.931098   47.195151
 writing wavefunctions

 total charge

[...]

 magnetization (x)

# of ion       s       p       d       tot
    1       -0.000  -0.000   0.000  -0.000
    2        0.000   0.000   0.000   0.000
    3        0.000   0.001   0.000   0.001
    4        0.000   0.000   0.000   0.000
    5        0.000   0.000   0.000   0.000
    6        0.000   0.001   0.000   0.001
    7       -0.000   0.000   0.000   0.000
    8       -0.000  -0.001   0.000  -0.001
    9        0.001   0.007   0.000   0.007
   10        0.000   0.002   0.000   0.002
   11       -0.000  -0.001   0.000  -0.001
   12        0.000   0.002   0.000   0.002
   13       -0.000  -0.000   0.000  -0.000
   14        0.000   0.001   0.000   0.001
   15        0.000   0.004   0.000   0.004
   16        0.000  -0.000   0.000  -0.000
   17       -0.000  -0.000   0.000  -0.000
   18        0.000   0.001   0.000   0.001
   19        0.000   0.002   0.000   0.003
   20        0.000   0.000   0.000   0.000
   21        0.000   0.001   0.000   0.001
   22        0.000   0.001   0.000   0.001
   23       -0.000  -0.000   0.000  -0.000
   24        0.000   0.003   0.000   0.003
   25        0.001   0.007   0.000   0.008
   26       -0.000  -0.001   0.000  -0.001
   27        0.000  -0.000   0.000  -0.000
   28        0.000   0.004   0.000   0.004
   29        0.000   0.002   0.000   0.002
   30        0.001   0.006   0.000   0.007
   31       -0.000  -0.001   0.000  -0.001
   32       -0.000  -0.001   0.000  -0.001
   33        0.001   0.007   0.000   0.007
   34        0.000   0.000   0.000   0.000
   35        0.000   0.000   0.000   0.000
   36        0.000   0.001   0.000   0.001
   37        0.000   0.000   0.000   0.000
   38       -0.000   0.000   0.000   0.000
   39        0.000   0.000   0.000   0.000
   40        0.000   0.001   0.000   0.001
   41       -0.000  -0.000   0.000  -0.000
   42       -0.000   0.000   0.000   0.000
   43        0.000   0.001   0.000   0.001
   44        0.000   0.001   0.000   0.001
   45       -0.000  -0.000   0.000  -0.000
   46       -0.000  -0.000   0.000  -0.000
   47       -0.000  -0.000   0.000  -0.000
   48       -0.000  -0.001   0.000  -0.001
   49        0.000   0.002   0.000   0.002
   50        0.000   0.001   0.000   0.001
   51        0.000   0.000   0.000   0.000
   52        0.000   0.000   0.000   0.000
   53        0.000   0.001   0.000   0.001
   54        0.000   0.000   0.000   0.000
   55        0.004   0.010   0.000   0.014
   56        0.004   0.008   0.000   0.012
   57        0.004   0.010   0.000   0.014
   58        0.004   0.008   0.000   0.012
   59        0.002   0.026  -1.212  -1.185
   60        0.288  -0.015   3.119   3.392
tot          0.308   0.101   1.907   2.316