 vasp.5.4.4.18Apr17-6-g9f103f2a35 (build Feb 25 2019 10:51:38) complex

 executed on             LinuxIFC date 2021.06.16  13:32:42

 INCAR:
 POTCAR:    PAW_PBE C 08Apr2002
 POTCAR:    PAW_PBE N 08Apr2002
 POTCAR:    PAW_PBE Cu 22Jun2005
 POTCAR:    PAW_PBE Fe 06Sep2000

 POTCAR:    PAW_PBE C 08Apr2002
   VRHFIN =C: s2p2

   TITEL  = PAW_PBE C 08Apr2002
   POMASS =   12.011; ZVAL   =    4.000    mass and valenz
   ENMAX  =  400.000; ENMIN  =  300.000 eV

 POTCAR:    PAW_PBE N 08Apr2002
   VRHFIN =N: s2p3

   TITEL  = PAW_PBE N 08Apr2002
   POMASS =   14.001; ZVAL   =    5.000    mass and valenz
   ENMAX  =  400.000; ENMIN  =  300.000 eV

 POTCAR:    PAW_PBE Cu 22Jun2005
   VRHFIN =Cu: d10 p1

   TITEL  = PAW_PBE Cu 22Jun2005
   POMASS =   63.546; ZVAL   =   11.000    mass and valenz
   ENMAX  =  295.446; ENMIN  =  221.585 eV

 POTCAR:    PAW_PBE Fe 06Sep2000
   VRHFIN =Fe:  d7 s1

   TITEL  = PAW_PBE Fe 06Sep2000
   POMASS =   55.847; ZVAL   =    8.000    mass and valenz
   ENMAX  =  267.882; ENMIN  =  200.911 eV

  PAW_PBE C 08Apr2002                   :
  PAW_PBE N 08Apr2002                   :
  PAW_PBE Cu 22Jun2005                  :
  PAW_PBE Fe 06Sep2000                  :

 POSCAR:  C  N Cu Fe
  positions in cartesian coordinates
 exchange correlation table for  LEXCH =        8
   RHO(1)=    0.500       N(1)  =     2000
   RHO(2)=  100.500       N(2)  =     4000

 VTST: version 3.2, (02/03/18)

 CHAIN: initializing optimizer

 OPT: Using VASP Conjugate-Gradient optimizer
 CHAIN: Read ICHAIN            0

 POSCAR:  C  N Cu Fe
  positions in cartesian coordinates

 ion  position               nearest neighbor table
   1  0.222  0.000  0.500-   3 1.42  19 1.43   4 1.43
   2  0.055  0.101  0.500-   3 1.43  33 1.43   7 1.43
   3  0.110  0.000  0.500-   1 1.42   2 1.43  17 1.43
   4  0.277  0.101  0.499-  21 1.42   5 1.43   1 1.43
   5  0.223  0.202  0.499-   4 1.43   7 1.43   8 1.44
   6  0.056  0.302  0.500-   7 1.42  11 1.43  37 1.44
   7  0.111  0.202  0.500-   6 1.42   2 1.43   5 1.43
   8  0.283  0.301  0.497-  50 1.37   5 1.44   9 1.47
   9  0.227  0.405  0.499-  49 1.36  11 1.45   8 1.47
  10  0.056  0.500  0.500-  14 1.42  11 1.42  40 1.45
  11  0.113  0.401  0.500-  10 1.42   6 1.43   9 1.45
  12  0.226  0.596  0.502-  49 1.36  14 1.45  15 1.46
  13  0.055  0.699  0.500-  18 1.42  14 1.43  44 1.44
  14  0.112  0.600  0.501-  10 1.42  13 1.43  12 1.45
  15  0.282  0.699  0.503-  52 1.38  16 1.44  12 1.46
  16  0.223  0.798  0.501-  19 1.43  18 1.43  15 1.44
  17  0.055  0.900  0.500-   3 1.43  48 1.43  18 1.43
  18  0.111  0.799  0.500-  13 1.42  17 1.43  16 1.43
  19  0.277  0.900  0.501-  27 1.42   1 1.43  16 1.43
  20  0.555  0.000  0.500-  22 1.41  29 1.42  23 1.42
  21  0.389  0.100  0.499-   4 1.42  25 1.42  22 1.42
  22  0.444  0.000  0.500-  20 1.41  27 1.42  21 1.42
  23  0.610  0.100  0.499-  31 1.42  24 1.42  20 1.42
  24  0.557  0.202  0.496-  51 1.36  23 1.42  25 1.46
  25  0.442  0.202  0.496-  50 1.36  21 1.42  24 1.46
  26  0.556  0.799  0.503-  53 1.38  29 1.42  28 1.45
  27  0.389  0.900  0.502-  22 1.42  19 1.42  28 1.42
  28  0.442  0.799  0.503-  52 1.38  27 1.42  26 1.45
  29  0.610  0.900  0.502-  20 1.42  46 1.42  26 1.42
  30  0.888  0.000  0.500-  32 1.42  33 1.43  48 1.43
  31  0.721  0.101  0.499-  23 1.42  36 1.43  32 1.43
  32  0.777  0.000  0.500-  30 1.42  46 1.43  31 1.43
  33  0.943  0.101  0.500-  30 1.43   2 1.43  34 1.43
  34  0.887  0.202  0.500-  37 1.42  33 1.43  36 1.43
  35  0.716  0.301  0.497-  51 1.37  36 1.44  39 1.47
  36  0.775  0.202  0.499-  31 1.43  34 1.43  35 1.44
  37  0.943  0.302  0.500-  34 1.42  38 1.43   6 1.44
  38  0.885  0.401  0.500-  40 1.42  37 1.43  39 1.45
  39  0.772  0.405  0.499-  54 1.36  38 1.45  35 1.47
  40  0.943  0.500  0.500-  41 1.42  38 1.42  10 1.45
  41  0.886  0.600  0.501-  40 1.42  44 1.43  43 1.45
  42  0.716  0.699  0.503-  53 1.38  47 1.44  43 1.46
  43  0.772  0.596  0.502-  54 1.36  41 1.45  42 1.46
  44  0.943  0.699  0.500-  45 1.42  41 1.43  13 1.44
  45  0.887  0.799  0.500-  44 1.42  48 1.43  47 1.43
  46  0.721  0.900  0.501-  29 1.42  32 1.43  47 1.43
  47  0.775  0.798  0.501-  46 1.43  45 1.43  42 1.44
  48  0.943  0.900  0.500-  30 1.43  17 1.43  45 1.43
  49  0.280  0.501  0.501-  12 1.36   9 1.36
  50  0.390  0.298  0.493-  25 1.36   8 1.37  55 2.01
  51  0.609  0.298  0.493-  24 1.36  35 1.37  55 2.01
  52  0.390  0.701  0.505-  28 1.38  15 1.38  56 2.00
  53  0.608  0.701  0.505-  26 1.38  42 1.38  56 2.00
  54  0.719  0.501  0.501-  43 1.36  39 1.36
  55  0.499  0.411  0.476-  50 2.01  51 2.01  56 2.33
  56  0.499  0.587  0.518-  52 2.00  53 2.00  55 2.33

  LATTYP: Found a triclinic cell.
 ALAT       =    26.8812627091
 B/A-ratio  =     0.4745015194
 C/A-ratio  =     0.4589256142
 COS(alpha) =     0.0000104720
 COS(beta)  =     0.4588781494
 COS(gamma) =     0.4747068845

  Lattice vectors:

 A1 = (  12.7607204715, -12.3350904569, -20.1893992310)
 A2 = (  12.7552000000,   0.0000000000,   0.0000000000)
 A3 = (   0.0001291875, -12.3364999993,   0.0000000000)

Analysis of symmetry for initial positions (statically):
 Subroutine PRICEL returns:
 Original cell was already a primitive cell.

 Routine SETGRP: Setting up the symmetry group for a
 triclinic supercell.

 Subroutine GETGRP returns: Found  1 space group operations
 (whereof  1 operations were pure point group operations)
 out of a pool of  2 trial point group operations.

The static configuration has the point symmetry C_1 .

Analysis of symmetry for dynamics (positions and initial velocities):
 Subroutine PRICEL returns:
 Original cell was already a primitive cell.

[...]

The dynamic configuration has the point symmetry C_1 .

Analysis of structural, dynamic, and magnetic symmetry:
 Subroutine PRICEL returns:
 Original cell was already a primitive cell.

 Routine SETGRP: Setting up the symmetry group for a
 triclinic supercell.

 Subroutine GETGRP returns: Found  1 space group operations
 (whereof  1 operations were pure point group operations)
 out of a pool of  2 trial point group operations.

The magnetic configuration has the point symmetry C_1 .

 Subroutine INISYM returns: Found  1 space group operations
 (whereof  1 operations are pure point group operations),
 and found     1 'primitive' translations

 KPOINTS: KPOINTS created by Atomic Simulation Env

Automatic generation of k-mesh.
Space group operators:
 irot       det(A)        alpha          n_x          n_y          n_z        tau_x        tau_y        tau_z
    1     1.000000     0.000000     1.000000     0.000000     0.000000     0.000000     0.000000     0.000000

 Subroutine IBZKPT returns following result:

 Found      2 irreducible k-points:

 Following reciprocal coordinates:
            Coordinates               Weight
  0.250000  0.250000  0.000000      2.000000
 -0.250000  0.250000  0.000000      2.000000

 Following cartesian coordinates:
            Coordinates               Weight
  0.019600  0.020265  0.000007      2.000000
 -0.019600  0.020265 -0.000004      2.000000

 Subroutine IBZKPT_HF returns following result:

 Found      4 k-points in 1st BZ
 the following      4 k-points will be used (e.g. in the exchange kernel)
 Following reciprocal coordinates:   # in IRBZ
  0.250000  0.250000  0.000000    0.25000000   1 t-inv F
 -0.250000  0.250000  0.000000    0.25000000   2 t-inv F
 -0.250000 -0.250000  0.000000    0.25000000   1 t-inv T
  0.250000 -0.250000  0.000000    0.25000000   2 t-inv T

 SYSTEM =  unknown system
 POSCAR =   C  N Cu Fe

 Startparameter for this run:
   NWRITE =      2    write-flag & timer
   PREC   = accura    normal or accurate (medium, high low for compatibility)
   ISTART =      1    job   : 0-new  1-cont  2-samecut
   ICHARG =      0    charge: 1-file 2-atom 10-const
   ISPIN  =      2    spin polarized calculation?
   LNONCOLLINEAR =      F non collinear calculations
   LSORBIT =      F    spin-orbit coupling
   INIWAV =      1    electr: 0-lowe 1-rand  2-diag
   LASPH  =      T    aspherical Exc in radial PAW
   METAGGA=      F    non-selfconsistent MetaGGA calc.

 Electronic Relaxation 1
   ENCUT  =  500.0 eV  36.75 Ry    6.06 a.u.  23.26 22.49 36.81*2*pi/ulx,y,z
   ENINI  =  500.0     initial cutoff
   ENAUG  =  644.9 eV  augmentation charge cutoff
   NELM   =    250;   NELMIN=  2; NELMDL=  0     # of ELM steps
   EDIFF  = 0.1E-03   stopping-criterion for ELM
   LREAL  =      F    real-space projection
   NLSPLINE    = F    spline interpolate recip. space projectors
   LCOMPAT=      F    compatible to vasp.4.4
   GGA_COMPAT  = T    GGA compatible to vasp.4.4-vasp.4.6
   LMAXPAW     = -100 max onsite density
   LMAXMIX     =    2 max onsite mixed and CHGCAR
   VOSKOWN=      0    Vosko Wilk Nusair interpolation
   ROPT   =    0.00000   0.00000   0.00000   0.00000
 Ionic relaxation
   EDIFFG = -.3E-01   stopping-criterion for IOM
   NSW    =      0    number of steps for IOM
   NBLOCK =      1;   KBLOCK =      1    inner block; outer block
   IBRION =     -1    ionic relax: 0-MD 1-quasi-New 2-CG
   NFREE  =      1    steps in history (QN), initial steepest desc. (CG)
   ISIF   =      2    stress and relaxation
   IWAVPR =     10    prediction:  0-non 1-charg 2-wave 3-comb
   ISYM   =      3    0-nonsym 1-usesym 2-fastsym
   LCORR  =      T    Harris-Foulkes like correction to forces

   POTIM  = 0.5000    time-step for ionic-motion
   TEIN   =    0.0    initial temperature
   TEBEG  =    0.0;   TEEND  =   0.0 temperature during run
   SMASS  =  -3.00    Nose mass-parameter (am)
   estimated Nose-frequenzy (Omega)   =  0.10E-29 period in steps =****** mass=  -0.372E-26a.u.
   SCALEE = 1.0000    scale energy and forces
   NPACO  =    256;   APACO  = 16.0  distance and # of slots for P.C.
   PSTRESS=    0.0 pullay stress

  Mass of Ions in am
   POMASS =  12.01 14.00 63.55 55.85
  Ionic Valenz
   ZVAL   =   4.00  5.00 11.00  8.00
  Atomic Wigner-Seitz radii
  virtual crystal weights
   VCA    =   1.00  1.00  1.00  1.00
   NELECT =     241.0000    total number of electrons
   NUPDOWN=      -1.0000    fix difference up-down

 DOS related values:
   EMIN   =  10.00;   EMAX   =-10.00  energy-range for DOS
   EFERMI =   0.00
   ISMEAR =     0;   SIGMA  =   0.10  broadening in eV -4-tet -1-fermi 0-gaus

 Electronic relaxation 2 (details)
   IALGO  =     53    algorithm
   LDIAG  =      T    sub-space diagonalisation (order eigenvalues)
   LSUBROT=      F    optimize rotation matrix (better conditioning)
   TURBO    =      0    0=normal 1=particle mesh
   IRESTART =      0    0=no restart 2=restart with 2 vectors
   NREBOOT  =      0    no. of reboots
   NMIN     =      0    reboot dimension
   EREF     =   0.00    reference energy to select bands
   IMIX   =      4    mixing-type and parameters
     AMIX     =   0.40;   BMIX     =  1.00
     AMIX_MAG =   1.60;   BMIX_MAG =  1.00
     AMIN     =   0.10
     WC   =   100.;   INIMIX=   1;  MIXPRE=   1;  MAXMIX= -45

 Intra band minimization:
   WEIMIN = 0.0000     energy-eigenvalue tresh-hold
   EBREAK =  0.16E-06  absolut break condition
   DEPER  =   0.30     relativ break condition

   TIME   =   0.20     timestep for ELM

[...]
   21        0.870   1.783   0.000   2.653
   22        0.866   1.795   0.000   2.661
   23        0.870   1.784   0.000   2.653
   24        0.861   1.739   0.000   2.600
   25        0.861   1.739   0.000   2.600
   26        0.860   1.741   0.000   2.600
   27        0.869   1.783   0.000   2.652
   28        0.860   1.741   0.000   2.600
   29        0.869   1.783   0.000   2.652
   30        0.867   1.777   0.000   2.644
   31        0.870   1.765   0.000   2.635
   32        0.864   1.785   0.000   2.649
   33        0.866   1.769   0.000   2.635
   34        0.866   1.768   0.000   2.634
   35        0.855   1.720   0.000   2.575
   36        0.865   1.765   0.000   2.630
   37        0.863   1.771   0.000   2.634
   38        0.865   1.761   0.000   2.625
   39        0.853   1.718   0.000   2.571
   40        0.868   1.759   0.000   2.627
   41        0.866   1.765   0.000   2.630
   42        0.854   1.721   0.000   2.575
   43        0.854   1.728   0.000   2.582
   44        0.864   1.775   0.000   2.639
   45        0.866   1.768   0.000   2.634
   46        0.870   1.766   0.000   2.636
   47        0.864   1.767   0.000   2.631
   48        0.866   1.769   0.000   2.634
   49        1.251   2.607   0.000   3.858
   50        1.235   2.660   0.000   3.895
   51        1.235   2.659   0.000   3.895
   52        1.232   2.669   0.000   3.901
   53        1.232   2.669   0.000   3.900
   54        1.251   2.607   0.000   3.858
   55        0.369   0.279   9.377  10.024
   56        0.371   0.308   6.165   6.845
tot         49.634 100.978  15.542 166.154

 magnetization (x)

[...]

  FORCE on cell =-STRESS in cart. coord.  units (eV):
  Direction    XX          YY          ZZ          XY          YZ          ZX
  Alpha Z    96.18570    96.18570    96.18570
  Ewald   47258.46698 47493.83589-55872.70113     0.04432  -123.76372     0.02803
  Hartree 47076.33369 47167.50363-46247.30575     0.01411   -65.35987    -0.02716
  E(xc)    -717.58096  -717.91253  -732.23313     0.00016    -0.13160    -0.00001
  Local  -96937.69500-97252.38883 99055.33150    -0.05459   185.60567     0.00411
  n-local   -92.51852   -86.77835   -78.39043    -0.00337    -0.47055    -0.00026
  augment   102.16264   102.31161   106.25045    -0.00256    -1.40307     0.00156
  Kinetic  3586.77110  3566.09644  4060.70022     0.00304     3.71690    -0.00581
  Fock     -412.12253  -413.57762  -388.37362     0.00269     2.23236    -0.00161
  Total     -39.99690   -44.72406    -0.53620     0.00381     0.42611    -0.00114
  in kB     -20.17132   -22.55533    -0.27042     0.00192     0.21490    -0.00058

 VOLUME and BASIS-vectors are now :
  energy-cutoff  :      500.00
  volume of cell :     3176.89
      direct lattice vectors                 reciprocal lattice vectors
    12.755200000  0.000000000  0.000000000     0.078399398  0.000000821  0.000020935
    -0.000129188 12.336499999  0.000000000     0.000000000  0.081060268  0.000005659
    -0.005391284 -0.001409542 20.189399231     0.000000000  0.000000000  0.049530944

  length of vectors
    12.755200000 12.336500000 20.189400000     0.078399401  0.081060269  0.049530944

 FORCES acting on ions:
    Electron-Ion                     Ewald-Force                    Non-Local-Force
   0.445E+01 0.129E+01 -.108E+01   -.483E+01 -.131E+01 0.108E+01   0.405E+00 -.766E-02 0.684E-02
   0.121E+01 -.100E+01 -.262E+01   -.116E+01 0.967E+00 0.262E+01   0.103E-01 0.510E-01 -.626E-02
   0.436E+01 0.731E+00 -.626E+00   -.446E+01 -.740E+00 0.620E+00   0.849E-01 -.182E-01 0.749E-02
   0.124E+02 0.648E+01 -.769E+00   -.126E+02 -.668E+01 0.717E+00   0.273E+00 0.210E+00 0.508E-01
   0.151E+02 -.171E+01 -.214E+01   -.153E+02 0.198E+01 0.215E+01   0.339E+00 -.233E+00 -.129E-01
   0.369E+01 -.248E+01 -.115E+01   -.386E+01 0.228E+01 0.112E+01   0.192E+00 0.123E+00 0.288E-01
   0.290E+01 0.660E+00 -.358E+01   -.334E+01 -.557E+00 0.361E+01   0.317E+00 -.582E-01 -.344E-01
   0.448E+02 -.177E+02 0.185E+01   -.478E+02 0.180E+02 -.166E+01   0.324E+01 -.516E+00 -.205E+00
   0.767E+01 0.223E+02 -.205E+01   -.891E+01 -.242E+02 0.193E+01   0.126E+01 0.221E+01 0.120E+00
   0.895E+01 -.429E-01 -.188E+01   -.861E+01 0.671E-02 0.191E+01   -.998E-01 0.603E-02 -.222E-01
   0.505E+00 0.475E+01 -.135E+01   -.404E+00 -.518E+01 0.133E+01   -.185E+00 0.493E+00 0.162E-01
   0.371E+01 -.254E+02 -.642E+01   -.514E+01 0.271E+02 0.639E+01   0.136E+01 -.207E+01 0.226E-01
   0.279E+01 0.148E+01 0.661E+00   -.298E+01 -.129E+01 -.666E+00   0.197E+00 -.138E+00 0.995E-02
   -.785E+00 -.582E+01 -.881E+00   0.859E+00 0.630E+01 0.830E+00   -.112E+00 -.480E+00 0.473E-01
   0.296E+02 0.167E+02 -.657E+01   -.329E+02 -.171E+02 0.647E+01   0.350E+01 0.547E+00 0.137E+00
   0.104E+02 0.357E+01 -.979E+00   -.108E+02 -.372E+01 0.971E+00   0.360E+00 0.104E+00 0.771E-02
   0.102E+01 0.206E+01 0.128E+01   -.973E+00 -.198E+01 -.128E+01   0.712E-02 -.522E-01 0.120E-01
   0.927E+00 -.370E+00 0.160E+01   -.136E+01 0.243E+00 -.163E+01   0.330E+00 0.539E-01 0.328E-01
   0.941E+01 -.167E+01 -.225E+01   -.975E+01 0.197E+01 0.226E+01   0.319E+00 -.267E+00 -.772E-02
   -.454E+01 0.296E+01 -.422E+01   0.416E+01 -.293E+01 0.422E+01   0.328E+00 -.379E-01 -.408E-02
   0.350E+01 0.135E+02 -.309E+01   -.323E+01 -.139E+02 0.315E+01   -.215E+00 0.417E+00 -.757E-01
   0.453E+01 0.294E+01 -.423E+01   -.415E+01 -.292E+01 0.423E+01   -.329E+00 -.385E-01 -.572E-02
   -.349E+01 0.134E+02 -.310E+01   0.322E+01 -.139E+02 0.317E+01   0.215E+00 0.417E+00 -.770E-01
   0.102E+02 0.438E+02 0.245E+01   -.114E+02 -.464E+02 -.224E+01   0.145E+01 0.265E+01 -.218E+00
   -.102E+02 0.438E+02 0.239E+01   0.114E+02 -.464E+02 -.218E+01   -.145E+01 0.265E+01 -.220E+00
   0.106E+02 -.239E+02 -.764E+01   -.117E+02 0.267E+02 0.741E+01   0.137E+01 -.295E+01 0.212E+00
   0.254E+01 -.467E+01 -.414E+01   -.234E+01 0.530E+01 0.411E+01   -.109E+00 -.597E+00 0.185E-01
   -.106E+02 -.239E+02 -.763E+01   0.117E+02 0.267E+02 0.741E+01   -.137E+01 -.295E+01 0.214E+00
   -.255E+01 -.466E+01 -.420E+01   0.235E+01 0.528E+01 0.417E+01   0.107E+00 -.596E+00 0.181E-01
   -.437E+01 0.746E+00 -.681E+00   0.447E+01 -.755E+00 0.675E+00   -.842E-01 -.188E-01 0.822E-02
   -.124E+02 0.648E+01 -.786E+00   0.126E+02 -.668E+01 0.732E+00   -.272E+00 0.209E+00 0.513E-01
   -.444E+01 0.129E+01 -.121E+01   0.482E+01 -.132E+01 0.121E+01   -.404E+00 -.992E-02 0.445E-02
   -.121E+01 -.100E+01 -.263E+01   0.116E+01 0.967E+00 0.263E+01   -.934E-02 0.499E-01 -.739E-02
   -.289E+01 0.636E+00 -.346E+01   0.333E+01 -.533E+00 0.349E+01   -.314E+00 -.586E-01 -.334E-01
   -.448E+02 -.178E+02 0.201E+01   0.478E+02 0.181E+02 -.182E+01   -.324E+01 -.515E+00 -.203E+00
   -.151E+02 -.172E+01 -.204E+01   0.153E+02 0.199E+01 0.205E+01   -.338E+00 -.233E+00 -.130E-01
   -.367E+01 -.246E+01 -.101E+01   0.385E+01 0.226E+01 0.979E+00   -.193E+00 0.124E+00 0.322E-01
   -.470E+00 0.473E+01 -.125E+01   0.368E+00 -.517E+01 0.123E+01   0.183E+00 0.492E+00 0.162E-01
   -.766E+01 0.223E+02 -.191E+01   0.889E+01 -.242E+02 0.179E+01   -.126E+01 0.221E+01 0.119E+00
   -.892E+01 -.456E-01 -.191E+01   0.858E+01 0.939E-02 0.193E+01   0.975E-01 0.572E-02 -.229E-01
   0.832E+00 -.581E+01 -.978E+00   -.907E+00 0.629E+01 0.927E+00   0.113E+00 -.479E+00 0.465E-01
   -.296E+02 0.168E+02 -.667E+01   0.328E+02 -.171E+02 0.657E+01   -.350E+01 0.546E+00 0.132E+00
   -.368E+01 -.254E+02 -.639E+01   0.511E+01 0.272E+02 0.636E+01   -.136E+01 -.207E+01 0.243E-01
   -.277E+01 0.148E+01 0.507E+00   0.296E+01 -.129E+01 -.510E+00   -.199E+00 -.135E+00 0.548E-02
   -.910E+00 -.353E+00 0.148E+01   0.134E+01 0.227E+00 -.151E+01   -.331E+00 0.578E-01 0.333E-01
   -.942E+01 -.164E+01 -.236E+01   0.976E+01 0.195E+01 0.237E+01   -.321E+00 -.267E+00 -.745E-02
   -.104E+02 0.358E+01 -.110E+01   0.107E+02 -.374E+01 0.109E+01   -.361E+00 0.104E+00 0.847E-02
   -.998E+00 0.206E+01 0.123E+01   0.945E+00 -.198E+01 -.123E+01   -.436E-02 -.518E-01 0.114E-01
   -.105E+03 -.625E+01 -.169E+02   0.135E+03 0.623E+01 0.174E+02   -.287E+02 0.375E-02 -.468E+00
   0.298E+02 -.417E+02 0.130E+02   -.183E+02 0.626E+02 -.143E+02   -.110E+02 -.198E+02 0.125E+01
   -.298E+02 -.419E+02 0.132E+02   0.182E+02 0.627E+02 -.145E+02   0.110E+02 -.198E+02 0.126E+01
   -.281E+01 0.657E+02 -.166E+02   0.129E+02 -.846E+02 0.168E+02   -.994E+01 0.181E+02 -.110E+00
   0.277E+01 0.658E+02 -.164E+02   -.129E+02 -.847E+02 0.165E+02   0.995E+01 0.181E+02 -.898E-01
   0.105E+03 -.626E+01 -.167E+02   -.135E+03 0.623E+01 0.172E+02   0.287E+02 0.663E-02 -.461E+00
   -.155E+00 -.162E+03 0.381E+03   0.151E+00 0.162E+03 -.376E+03   0.767E-02 -.211E+00 -.440E+01
   -.115E+00 0.638E+02 -.251E+03   0.113E+00 -.607E+02 0.246E+03   0.345E-02 -.328E+01 0.537E+01
   -.188E-01 0.837E+01 -.282E+01   0.313E-12 0.185E-12 0.853E-13   0.183E-01 -.791E+01 0.264E+01

 POSITION                                       TOTAL-FORCE (eV/Angst)
      2.82431      0.00155     10.09653         0.046793     -0.031572      0.004344
      0.70141      1.24611     10.09588         0.056824      0.013858     -0.006617
      1.39998      0.00336     10.09592        -0.011635     -0.029460      0.002342
      3.53131      1.24217     10.07794         0.030615      0.028735      0.000972
      2.84458      2.49399     10.07164         0.116609      0.022735     -0.009212
      0.70585      3.72138     10.08839         0.030593     -0.075248     -0.001535
      1.41216      2.48717     10.09021        -0.112963      0.043986     -0.009994
      3.60298      3.71635     10.03428         0.443907     -0.257698     -0.021816
      2.88701      4.99804     10.08056         0.096433      0.429270      0.006605
      0.70957      6.17283     10.10055         0.248824     -0.030730     -0.001844
      1.43768      4.94875     10.09006        -0.098697      0.084864     -0.005174
      2.87983      7.35263     10.12745         0.009130     -0.414926     -0.003491
      0.70491      8.62539     10.10283         0.016721      0.044660      0.006887
      1.43171      7.39790     10.10719        -0.049050     -0.036350     -0.000409
      3.59707      8.62354     10.14916         0.483513      0.221295      0.045878
      2.84727      9.84770     10.11936         0.042903     -0.040521      0.001462
      0.70160     11.09684     10.09620         0.057755      0.025665      0.010849
      1.41391      9.85709     10.10223        -0.086872     -0.074650      0.009604
      3.53162     11.10049     10.11511         0.001843      0.022519      0.002795
      7.07146      0.00053     10.10316        -0.047737     -0.014283     -0.004956
      4.95282      1.23733     10.07064         0.033774      0.032955     -0.017190
      5.65768      0.00056     10.10314         0.046699     -0.014192     -0.006356
      7.77620      1.23732     10.07063        -0.034811      0.032814     -0.017937
      7.09566      2.48651     10.01010         0.342005      0.244148     -0.018984
      5.63331      2.48653     10.01028        -0.342417      0.243232     -0.020105
      7.08806      9.85461     10.16521         0.347530     -0.271079     -0.002396
      4.95453     11.10170     10.12759         0.075968     -0.007835     -0.006561
      5.64072      9.85466     10.16522        -0.346062     -0.270948     -0.001737
      7.77435     11.10163     10.12779        -0.077482     -0.007717     -0.007082
     11.32896      0.00337     10.09613         0.012731     -0.030219      0.002547
      9.19764      1.24218     10.07795        -0.028329      0.028493      0.001094
      9.90468      0.00161     10.09692        -0.046764     -0.034794      0.002639
     12.02752      1.24613     10.09586        -0.055890      0.012675     -0.007447
     11.31679      2.48719     10.08982         0.115866      0.044074     -0.008740
      9.12598      3.71627     10.03368        -0.442521     -0.255425     -0.021097
      9.88437      2.49399     10.07124        -0.115341      0.022499     -0.009025
     12.02332      3.72133     10.08801        -0.032626     -0.073316      0.000989
     11.29157      4.94871     10.08966         0.095998      0.083864     -0.004847
      9.84218      4.99790     10.07995        -0.098016      0.430739      0.006485
     12.01968      6.17279     10.10054        -0.251809     -0.031019     -0.002995
     11.29740      7.39780     10.10738         0.048450     -0.035993     -0.001330
      9.13175      8.62346     10.14932        -0.482710      0.219021      0.042639
      9.84921      7.35251     10.12727        -0.010636     -0.414121     -0.001767
     12.02417      8.62528     10.10319        -0.018317      0.046509      0.003289
     11.31500      9.85689     10.10264         0.085592     -0.070312      0.009618
      9.19727     11.10046     10.11551        -0.002822      0.021778      0.002429
      9.88163      9.84760     10.11977        -0.044759     -0.041283      0.001975
     12.02708     11.09680     10.09639        -0.055938      0.025250      0.010571
      3.56708      6.17784     10.12005        -0.908492     -0.024498     -0.010418
      4.96635      3.67487      9.96019        -0.382418     -0.626434      0.104435
      7.76258      3.67483      9.95977         0.382957     -0.624038      0.104143
      4.97379      8.64994     10.19363        -0.732107      0.855717      0.004255
      7.75491      8.64981     10.19326         0.734160      0.854794      0.007842
      9.16206      6.17766     10.11945         0.908736     -0.022978     -0.009623
      6.36405      5.07349      9.60648         0.002579     -0.235932     -0.026627
      6.36416      7.23495     10.46379         0.001715     -0.038577     -0.129376
    total drift:                                0.000316      0.072976     -0.025633

  FREE ENERGIE OF THE ION-ELECTRON SYSTEM (eV)
  free  energy   TOTEN  =      -580.29909301 eV

  energy  without entropy=     -580.29909015  energy(sigma->0) =     -580.29909158

 stress matrix after NEB project (eV)
    -39.99690      0.00381     -0.00114
      0.00381    -44.72406      0.44161
     -0.00114      0.42611     -0.53620
  FORCES: max atom, RMS     1.126821    0.383948
  FORCE total and by dimension    2.873203    0.908736
  Stress total and by dimension   60.005481   44.724060
 writing wavefunctions

 total charge

[...]

 magnetization (x)

# of ion       s       p       d       tot
    1        0.000   0.002   0.000   0.003
    2        0.000   0.001   0.000   0.001
    3       -0.000  -0.002   0.000  -0.002
    4       -0.000  -0.000   0.000  -0.000
    5        0.000   0.001   0.000   0.001
    6        0.000   0.001   0.000   0.001
    7       -0.000  -0.003   0.000  -0.003
    8       -0.000  -0.003   0.000  -0.003
    9        0.000   0.002   0.000   0.003
   10       -0.000  -0.001   0.000  -0.001
   11       -0.000  -0.002   0.000  -0.002
   12        0.000   0.006   0.000   0.007
   13        0.000   0.003   0.000   0.003
   14       -0.000  -0.001   0.000  -0.001
   15       -0.001  -0.010   0.000  -0.011
   16        0.001   0.005   0.000   0.006
   17        0.000   0.000   0.000   0.001
   18       -0.000  -0.002   0.000  -0.002
   19       -0.000  -0.004   0.000  -0.004
   20       -0.000   0.000   0.000   0.000
   21       -0.000   0.000   0.000  -0.000
   22       -0.000   0.000   0.000   0.000
   23       -0.000   0.000   0.000  -0.000
   24       -0.001  -0.001   0.000  -0.002
   25       -0.001  -0.001   0.000  -0.002
   26        0.001   0.004   0.000   0.005
   27        0.000   0.000   0.000   0.001
   28        0.001   0.004   0.000   0.005
   29        0.000   0.000   0.000   0.001
   30       -0.000  -0.002   0.000  -0.002
   31       -0.000  -0.000   0.000  -0.000
   32        0.000   0.002   0.000   0.003
   33        0.000   0.001   0.000   0.001
   34       -0.000  -0.003   0.000  -0.003
   35       -0.000  -0.003   0.000  -0.003
   36        0.000   0.001   0.000   0.001
   37        0.000   0.001   0.000   0.001
   38       -0.000  -0.002   0.000  -0.002
   39        0.000   0.002   0.000   0.003
   40       -0.000  -0.001   0.000  -0.001
   41       -0.000  -0.001   0.000  -0.001
   42       -0.001  -0.010   0.000  -0.011
   43        0.000   0.006   0.000   0.007
   44        0.000   0.003   0.000   0.003
   45       -0.000  -0.002   0.000  -0.002
   46       -0.000  -0.004   0.000  -0.004
   47        0.001   0.005   0.000   0.006
   48        0.000   0.000   0.000   0.001
   49       -0.003  -0.019   0.000  -0.023
   50       -0.003  -0.011   0.000  -0.014
   51       -0.003  -0.011   0.000  -0.014
   52        0.002   0.020   0.000   0.022
   53        0.002   0.020   0.000   0.022
   54       -0.003  -0.019   0.000  -0.023
   55       -0.078  -0.058   0.013  -0.124
   56       -0.043   0.006   3.287   3.250
tot         -0.130  -0.077   3.299   3.092