 vasp.5.4.4.18Apr17-6-g9f103f2a35 (build Feb 25 2019 10:51:38) complex

 executed on             LinuxIFC date 2021.08.06  12:20:59

 INCAR:
 POTCAR:    PAW_PBE C 08Apr2002
 POTCAR:    PAW_PBE N 08Apr2002
 POTCAR:    PAW_PBE Fe 06Sep2000

 POTCAR:    PAW_PBE C 08Apr2002
   VRHFIN =C: s2p2

   TITEL  = PAW_PBE C 08Apr2002
   POMASS =   12.011; ZVAL   =    4.000    mass and valenz
   ENMAX  =  400.000; ENMIN  =  300.000 eV

 POTCAR:    PAW_PBE N 08Apr2002
   VRHFIN =N: s2p3

   TITEL  = PAW_PBE N 08Apr2002
   POMASS =   14.001; ZVAL   =    5.000    mass and valenz
   ENMAX  =  400.000; ENMIN  =  300.000 eV

 POTCAR:    PAW_PBE Fe 06Sep2000
   VRHFIN =Fe:  d7 s1

   TITEL  = PAW_PBE Fe 06Sep2000
   POMASS =   55.847; ZVAL   =    8.000    mass and valenz
   ENMAX  =  267.882; ENMIN  =  200.911 eV

  PAW_PBE C 08Apr2002                   :
  PAW_PBE N 08Apr2002                   :
  PAW_PBE Fe 06Sep2000                  :

 POSCAR:  C  N Fe
  positions in cartesian coordinates
 exchange correlation table for  LEXCH =        8
   RHO(1)=    0.500       N(1)  =     2000
   RHO(2)=  100.500       N(2)  =     4000

 VTST: version 3.2, (02/03/18)

 CHAIN: initializing optimizer

 OPT: Using VASP Conjugate-Gradient optimizer
 CHAIN: Read ICHAIN            0

 POSCAR:  C  N Fe
  positions in cartesian coordinates

 ion  position               nearest neighbor table
   1  0.221  0.000  0.500-   3 1.42  20 1.43   4 1.44
   2  0.055  0.101  0.500-  34 1.42   7 1.44   3 1.44
   3  0.110  0.000  0.500-   1 1.42   2 1.44  18 1.44
   4  0.277  0.100  0.500-  22 1.42   5 1.43   1 1.44
   5  0.223  0.201  0.501-   4 1.43   7 1.43   8 1.45
   6  0.055  0.300  0.501-  38 1.43   7 1.44  11 1.44
   7  0.111  0.200  0.501-   5 1.43   2 1.44   6 1.44
   8  0.281  0.300  0.500-  51 1.42   5 1.45   9 1.45
   9  0.223  0.400  0.501-  11 1.43  12 1.44   8 1.45
  10  0.054  0.500  0.501-  42 1.44  11 1.44  15 1.45
  11  0.111  0.400  0.501-   9 1.43   6 1.44  10 1.44
  12  0.279  0.500  0.500-  52 1.40   9 1.44  13 1.44
  13  0.223  0.600  0.500-  15 1.43  12 1.44  16 1.46
  14  0.055  0.700  0.501-  46 1.43  19 1.44  15 1.44
  15  0.111  0.600  0.501-  13 1.43  14 1.44  10 1.45
  16  0.281  0.700  0.500-  53 1.42  17 1.45  13 1.46
  17  0.223  0.800  0.501-  19 1.43  20 1.43  16 1.45
  18  0.055  0.899  0.500-  50 1.42  19 1.44   3 1.44
  19  0.111  0.800  0.501-  17 1.43  18 1.44  14 1.44
  20  0.276  0.901  0.500-  28 1.42  17 1.43   1 1.43
  21  0.555  0.000  0.500-  23 1.42  24 1.42  30 1.42
  22  0.388  0.099  0.500-  26 1.42  23 1.42   4 1.42
  23  0.443  0.001  0.500-  21 1.42  22 1.42  28 1.43
  24  0.611  0.098  0.500-  25 1.41  32 1.42  21 1.42
  25  0.557  0.196  0.500-  55 1.37  24 1.41  26 1.44
  26  0.444  0.198  0.500-  51 1.42  22 1.42  25 1.44
  27  0.555  0.805  0.500-  30 1.41  54 1.41  29 1.44
  28  0.387  0.902  0.500-  29 1.41  20 1.42  23 1.43
  29  0.443  0.804  0.500-  28 1.41  53 1.42  27 1.44
  30  0.611  0.902  0.501-  27 1.41  21 1.42  48 1.42
  31  0.889  1.000  0.500-  33 1.41  34 1.44  50 1.44
  32  0.723  0.099  0.500-  24 1.42  37 1.43  33 1.43
  33  0.778  0.999  0.500-  31 1.41  32 1.43  48 1.43
  34  0.944  0.100  0.500-   2 1.42  35 1.44  31 1.44
  35  0.888  0.200  0.500-  37 1.43  38 1.43  34 1.44
  36  0.716  0.297  0.500-  55 1.38  37 1.44  41 1.45
  37  0.776  0.199  0.500-  32 1.43  35 1.43  36 1.44
  38  0.943  0.300  0.501-   6 1.43  35 1.43  39 1.44
  39  0.885  0.399  0.501-  41 1.44  38 1.44  42 1.45
  40  0.718  0.500  0.499-  56 1.34  41 1.45  45 1.45
  41  0.773  0.398  0.500-  39 1.44  40 1.45  36 1.45
  42  0.942  0.499  0.501-  10 1.44  43 1.44  39 1.45
  43  0.886  0.599  0.501-  45 1.43  42 1.44  46 1.45
  44  0.717  0.701  0.501-  54 1.42  49 1.45  45 1.45
  45  0.774  0.600  0.500-  43 1.43  40 1.45  44 1.45
  46  0.943  0.700  0.501-  14 1.43  47 1.44  43 1.45
  47  0.887  0.800  0.501-  49 1.43  50 1.44  46 1.44
  48  0.722  0.900  0.501-  30 1.42  49 1.43  33 1.43
  49  0.776  0.800  0.501-  47 1.43  48 1.43  44 1.45
  50  0.944  0.899  0.500-  18 1.42  47 1.44  31 1.44
  51  0.393  0.299  0.499-  26 1.42   8 1.42  57 1.96
  52  0.388  0.499  0.497-  12 1.40  57 1.83  58 1.85
  53  0.393  0.703  0.499-  29 1.42  16 1.42  58 2.00
  54  0.606  0.705  0.500-  27 1.41  44 1.42  58 1.96
  55  0.608  0.293  0.500-  25 1.37  36 1.38  57 1.99
  56  0.613  0.501  0.496-  40 1.34  58 1.80  57 1.83
  57  0.502  0.409  0.493-  52 1.83  56 1.83  51 1.96  55 1.99  58 2.25
  58  0.502  0.589  0.491-  56 1.80  52 1.85  54 1.96  53 2.00  57 2.25

  LATTYP: Found a triclinic cell.
 ALAT       =    12.4969119303
 B/A-ratio  =     1.4289719069
 C/A-ratio  =     1.5929013719
 COS(alpha) =     0.0002145298
 COS(beta)  =     0.0004311590
 COS(gamma) =     0.6989992342

  Lattice vectors:

 A1 = (  -0.0073595058,  12.4969097262,  -0.0009626111)
 A2 = (  12.7631141050,  12.4900622052,  -0.0014299593)
 A3 = (  -0.0031519514,   0.0070476024, -19.9063466608)

Analysis of symmetry for initial positions (statically):
 Subroutine PRICEL returns:
 Original cell was already a primitive cell.

 Routine SETGRP: Setting up the symmetry group for a
 triclinic supercell.

 Subroutine GETGRP returns: Found  1 space group operations
 (whereof  1 operations were pure point group operations)
 out of a pool of  2 trial point group operations.

The static configuration has the point symmetry C_1 .

Analysis of symmetry for dynamics (positions and initial velocities):
 Subroutine PRICEL returns:
 Original cell was already a primitive cell.

[...]

The dynamic configuration has the point symmetry C_1 .

Analysis of structural, dynamic, and magnetic symmetry:
 Subroutine PRICEL returns:
 Original cell was already a primitive cell.

 Routine SETGRP: Setting up the symmetry group for a
 triclinic supercell.

 Subroutine GETGRP returns: Found  1 space group operations
 (whereof  1 operations were pure point group operations)
 out of a pool of  2 trial point group operations.

The magnetic configuration has the point symmetry C_1 .

 Subroutine INISYM returns: Found  1 space group operations
 (whereof  1 operations are pure point group operations),
 and found     1 'primitive' translations

 KPOINTS: KPOINTS created by Atomic Simulation Env

Automatic generation of k-mesh.
Space group operators:
 irot       det(A)        alpha          n_x          n_y          n_z        tau_x        tau_y        tau_z
    1     1.000000     0.000000     1.000000     0.000000     0.000000     0.000000     0.000000     0.000000

 Subroutine IBZKPT returns following result:

 Found      2 irreducible k-points:

 Following reciprocal coordinates:
            Coordinates               Weight
  0.250000  0.250000 -0.000000      2.000000
 -0.250000  0.250000 -0.000000      2.000000

 Following cartesian coordinates:
            Coordinates               Weight
  0.019587  0.020016  0.000004      2.000000
 -0.019566  0.019993  0.000010      2.000000

 Subroutine IBZKPT_HF returns following result:

 Found      4 k-points in 1st BZ
 the following      4 k-points will be used (e.g. in the exchange kernel)
 Following reciprocal coordinates:   # in IRBZ
  0.250000  0.250000 -0.000000    0.25000000   1 t-inv F
 -0.250000  0.250000 -0.000000    0.25000000   2 t-inv F
 -0.250000 -0.250000  0.000000    0.25000000   1 t-inv T
  0.250000 -0.250000  0.000000    0.25000000   2 t-inv T

 SYSTEM =  unknown system
 POSCAR =   C  N Fe

 Startparameter for this run:
   NWRITE =      2    write-flag & timer
   PREC   = accura    normal or accurate (medium, high low for compatibility)
   ISTART =      1    job   : 0-new  1-cont  2-samecut
   ICHARG =      0    charge: 1-file 2-atom 10-const
   ISPIN  =      2    spin polarized calculation?
   LNONCOLLINEAR =      F non collinear calculations
   LSORBIT =      F    spin-orbit coupling
   INIWAV =      1    electr: 0-lowe 1-rand  2-diag
   LASPH  =      T    aspherical Exc in radial PAW
   METAGGA=      F    non-selfconsistent MetaGGA calc.

 Electronic Relaxation 1
   ENCUT  =  500.0 eV  36.75 Ry    6.06 a.u.  23.28 22.78 36.29*2*pi/ulx,y,z
   ENINI  =  500.0     initial cutoff
   ENAUG  =  644.9 eV  augmentation charge cutoff
   NELM   =    250;   NELMIN=  2; NELMDL=  0     # of ELM steps
   EDIFF  = 0.1E-03   stopping-criterion for ELM
   LREAL  =      F    real-space projection
   NLSPLINE    = F    spline interpolate recip. space projectors
   LCOMPAT=      F    compatible to vasp.4.4
   GGA_COMPAT  = T    GGA compatible to vasp.4.4-vasp.4.6
   LMAXPAW     = -100 max onsite density
   LMAXMIX     =    2 max onsite mixed and CHGCAR
   VOSKOWN=      0    Vosko Wilk Nusair interpolation
   ROPT   =    0.00000   0.00000   0.00000
 Ionic relaxation
   EDIFFG = -.3E-01   stopping-criterion for IOM
   NSW    =      0    number of steps for IOM
   NBLOCK =      1;   KBLOCK =      1    inner block; outer block
   IBRION =     -1    ionic relax: 0-MD 1-quasi-New 2-CG
   NFREE  =      1    steps in history (QN), initial steepest desc. (CG)
   ISIF   =      2    stress and relaxation
   IWAVPR =     10    prediction:  0-non 1-charg 2-wave 3-comb
   ISYM   =      3    0-nonsym 1-usesym 2-fastsym
   LCORR  =      T    Harris-Foulkes like correction to forces

   POTIM  = 0.5000    time-step for ionic-motion
   TEIN   =    0.0    initial temperature
   TEBEG  =    0.0;   TEEND  =   0.0 temperature during run
   SMASS  =  -3.00    Nose mass-parameter (am)
   estimated Nose-frequenzy (Omega)   =  0.10E-29 period in steps =****** mass=  -0.373E-26a.u.
   SCALEE = 1.0000    scale energy and forces
   NPACO  =    256;   APACO  = 16.0  distance and # of slots for P.C.
   PSTRESS=    0.0 pullay stress

  Mass of Ions in am
   POMASS =  12.01 14.00 55.85
  Ionic Valenz
   ZVAL   =   4.00  5.00  8.00
  Atomic Wigner-Seitz radii
  virtual crystal weights
   VCA    =   1.00  1.00  1.00
   NELECT =     242.0000    total number of electrons
   NUPDOWN=      -1.0000    fix difference up-down

 DOS related values:
   EMIN   =  10.00;   EMAX   =-10.00  energy-range for DOS
   EFERMI =   0.00
   ISMEAR =     0;   SIGMA  =   0.10  broadening in eV -4-tet -1-fermi 0-gaus

 Electronic relaxation 2 (details)
   IALGO  =     53    algorithm
   LDIAG  =      T    sub-space diagonalisation (order eigenvalues)
   LSUBROT=      F    optimize rotation matrix (better conditioning)
   TURBO    =      0    0=normal 1=particle mesh
   IRESTART =      0    0=no restart 2=restart with 2 vectors
   NREBOOT  =      0    no. of reboots
   NMIN     =      0    reboot dimension
   EREF     =   0.00    reference energy to select bands
   IMIX   =      4    mixing-type and parameters
     AMIX     =   0.40;   BMIX     =  1.00
     AMIX_MAG =   1.60;   BMIX_MAG =  1.00
     AMIN     =   0.10
     WC   =   100.;   INIMIX=   1;  MIXPRE=   1;  MAXMIX= -45

 Intra band minimization:
   WEIMIN = 0.0000     energy-eigenvalue tresh-hold
   EBREAK =  0.16E-06  absolut break condition
   DEPER  =   0.30     relativ break condition

   TIME   =   0.20     timestep for ELM

  volume/ion in A,a.u.               =      54.77       369.63
  Fermi-wavevector in a.u.,A,eV,Ry     =   0.693979  1.311430  6.552657  0.481607
[...]
   33        0.867   1.778   0.000   2.645
   34        0.864   1.762   0.000   2.625
   35        0.863   1.757   0.000   2.621
   36        0.854   1.702   0.000   2.555
   37        0.863   1.767   0.000   2.630
   38        0.862   1.759   0.000   2.621
   39        0.860   1.734   0.000   2.594
   40        0.863   1.731   0.000   2.594
   41        0.855   1.750   0.000   2.604
   42        0.857   1.747   0.000   2.605
   43        0.863   1.740   0.000   2.603
   44        0.861   1.735   0.000   2.596
   45        0.862   1.747   0.000   2.609
   46        0.861   1.755   0.000   2.616
   47        0.864   1.751   0.000   2.615
   48        0.868   1.768   0.000   2.636
   49        0.863   1.753   0.000   2.617
   50        0.864   1.762   0.000   2.625
   51        0.870   1.653   0.000   2.523
   52        0.914   1.528   0.000   2.442
   53        0.869   1.653   0.000   2.522
   54        0.872   1.674   0.000   2.546
   55        1.232   2.657   0.000   3.889
   56        1.256   2.591   0.000   3.847
   57        0.522   0.752   6.341   7.615
   58        0.550   0.842   6.183   7.575
tot         50.342 101.186  12.523 164.051

 magnetization (x)

[...]

  FORCE on cell =-STRESS in cart. coord.  units (eV):
  Direction    XX          YY          ZZ          XY          YZ          ZX
  Alpha Z   100.92191   100.92191   100.92191
  Ewald   46759.39487 46551.32625-55041.36758     1.18983   -17.69441    10.90713
  Hartree 45999.03588 45984.72483-45499.84946    -1.64319   -14.30569     6.23656
  E(xc)    -701.04672  -701.43470  -713.81093    -0.11396     0.12783     0.13875
  Local  -95315.20496-95124.59544 97521.82627     1.37953    33.20300   -15.22268
  n-local  -138.06756  -135.71834  -122.16115     1.47351    -0.43536    -0.04290
  augment    50.68040    51.61549    51.14641     0.55436    -0.56464    -0.77980
  Kinetic  3517.47270  3551.01203  3999.52363    -2.27559    -0.73192    -1.86543
  Fock     -317.16376  -318.65273  -296.59592    -0.29410     0.32688     0.59548
  Total     -43.97725   -40.80071    -0.36684     0.27038    -0.07431    -0.03289
  in kB     -22.17878   -20.57677    -0.18501     0.13636    -0.03748    -0.01659

 VOLUME and BASIS-vectors are now :
  energy-cutoff  :      500.00
  volume of cell :     3176.88
      direct lattice vectors                 reciprocal lattice vectors
    12.770473611 -0.006847521 -0.000467348     0.078305656  0.000046114 -0.000012383
    -0.007359506 12.496909726 -0.000962611     0.000042908  0.080019810  0.000028323
     0.003151951 -0.007047602 19.906346661     0.000001840  0.000003871  0.050235236

  length of vectors
    12.770475455 12.496911930 19.906348158     0.078305670  0.080019827  0.050235236

 FORCES acting on ions:
    Electron-Ion                     Ewald-Force                    Non-Local-Force
   -.145E+00 -.115E+00 -.781E+00   0.432E-01 0.124E+00 0.787E+00   -.275E-01 0.251E-01 -.298E-02
   -.371E+01 -.218E+00 0.420E+00   0.386E+01 0.304E+00 -.407E+00   -.153E+00 -.394E-01 -.205E-02
   0.663E+01 0.719E+00 0.720E+00   -.650E+01 -.756E+00 -.715E+00   -.104E-01 0.353E-01 0.774E-02
   0.872E+01 0.606E+00 -.191E+01   -.874E+01 -.379E+00 0.189E+01   0.669E-01 -.160E+00 0.236E-01
   0.356E+01 -.563E+01 -.320E+01   -.316E+01 0.612E+01 0.323E+01   -.372E+00 -.536E+00 -.222E-01
   -.348E+01 -.296E+01 -.309E+01   0.352E+01 0.294E+01 0.309E+01   -.111E+00 0.463E-02 -.253E-02
   0.983E+00 -.259E+01 -.181E+01   -.745E+00 0.256E+01 0.182E+01   -.227E+00 -.117E-01 -.798E-02
   0.786E+01 -.769E+01 -.360E+01   -.626E+01 0.760E+01 0.357E+01   -.139E+01 -.358E-01 0.658E-02
   -.825E+00 0.115E+01 -.468E+01   0.132E+01 -.176E+01 0.473E+01   -.516E+00 0.571E+00 -.384E-01
   -.201E+01 -.150E+01 -.495E+01   0.203E+01 0.149E+01 0.495E+01   -.244E-01 -.225E-01 -.957E-03
   0.222E+01 -.194E+01 -.476E+01   -.199E+01 0.196E+01 0.477E+01   -.165E+00 0.372E-01 -.202E-01
   0.905E+01 -.320E+01 -.830E+01   -.919E+01 0.329E+01 0.836E+01   0.273E+00 0.387E-01 -.688E-01
   -.311E+01 -.313E+01 -.455E+01   0.348E+01 0.368E+01 0.444E+01   -.579E+00 -.540E+00 0.107E+00
   -.410E+01 0.296E+01 -.349E+01   0.402E+01 -.284E+01 0.349E+01   -.447E-01 -.405E-01 0.200E-02
   0.245E+01 0.574E+00 -.504E+01   -.211E+01 -.502E+00 0.506E+01   -.150E+00 -.100E+00 -.288E-01
   0.593E+01 0.852E+01 -.395E+01   -.429E+01 -.840E+01 0.388E+01   -.144E+01 -.431E-01 0.334E-01
   0.130E+01 0.753E+01 -.407E+01   -.983E+00 -.799E+01 0.411E+01   -.289E+00 0.513E+00 -.442E-01
   -.358E+01 0.151E+01 0.349E+00   0.368E+01 -.167E+01 -.338E+00   -.110E+00 0.105E+00 0.429E-02
   0.195E+01 0.342E+01 -.229E+01   -.173E+01 -.346E+01 0.231E+01   -.247E+00 0.334E-01 -.136E-01
   0.899E+01 0.195E+01 -.179E+01   -.899E+01 -.228E+01 0.176E+01   0.562E-01 0.223E+00 0.324E-01
   0.729E+00 0.403E+01 -.194E+01   -.118E+01 -.445E+01 0.192E+01   0.332E+00 0.429E+00 0.257E-01
   0.808E+01 0.214E+01 -.308E+01   -.802E+01 -.193E+01 0.314E+01   -.763E-01 -.228E+00 -.369E-01
   0.567E+01 0.284E+01 -.222E+01   -.588E+01 -.292E+01 0.224E+01   0.261E+00 0.119E+00 -.823E-02
   -.298E+01 0.143E+02 -.267E+01   0.287E+01 -.149E+02 0.270E+01   0.111E+00 0.577E+00 -.159E-01
   0.189E+02 0.320E+02 -.442E+01   -.215E+02 -.349E+02 0.447E+01   0.257E+01 0.301E+01 -.668E-01
   0.145E+02 0.702E+01 -.404E+01   -.160E+02 -.559E+01 0.406E+01   0.134E+01 -.130E+01 -.204E-01
   0.875E+00 -.256E+01 -.700E+01   -.636E+00 0.119E+01 0.713E+01   -.932E-01 0.118E+01 -.150E+00
   0.546E+01 -.613E+00 -.262E+01   -.542E+01 0.178E+00 0.266E+01   -.989E-01 0.360E+00 -.401E-01
   0.645E+01 0.519E+00 -.324E+01   -.690E+01 -.195E+01 0.333E+01   0.289E+00 0.122E+01 -.105E+00
   -.404E+01 -.101E+01 -.391E+01   0.392E+01 0.503E+00 0.395E+01   0.155E+00 0.420E+00 -.201E-01
   -.997E+01 0.170E+01 0.776E+00   0.100E+02 -.177E+01 -.769E+00   -.174E+00 0.802E-01 0.948E-02
   -.117E+02 0.800E+01 -.166E+01   0.120E+02 -.829E+01 0.165E+01   -.280E+00 0.318E+00 0.797E-02
   -.253E+01 0.308E+01 -.126E+01   0.284E+01 -.349E+01 0.127E+01   -.193E+00 0.447E+00 -.392E-02
   -.786E+00 -.618E-01 0.743E+00   0.942E+00 0.117E+00 -.736E+00   -.144E+00 -.515E-02 0.679E-02
   -.759E+01 -.429E+00 -.135E+01   0.802E+01 0.499E+00 0.136E+01   -.381E+00 -.101E+00 -.358E-02
   -.421E+02 -.727E+01 -.292E+01   0.456E+02 0.760E+01 0.290E+01   -.364E+01 -.381E+00 -.372E-03
   -.142E+02 -.138E+01 -.244E+01   0.148E+02 0.121E+01 0.244E+01   -.517E+00 0.138E+00 -.959E-02
   -.316E+01 -.433E+01 -.314E+01   0.343E+01 0.438E+01 0.315E+01   -.171E+00 -.541E-01 -.983E-02
   -.852E+01 -.235E+01 -.477E+01   0.867E+01 0.250E+01 0.479E+01   -.118E+00 -.613E-01 -.353E-01
   -.552E+02 -.378E+01 -.372E+01   0.589E+02 0.418E+01 0.384E+01   -.357E+01 -.233E+00 -.144E+00
   -.146E+02 0.136E+01 -.363E+01   0.148E+02 -.100E+01 0.367E+01   -.191E+00 -.212E+00 -.463E-01
   -.368E+01 -.479E+00 -.480E+01   0.374E+01 0.510E+00 0.478E+01   -.496E-01 -.854E-01 0.217E-01
   -.930E+01 -.152E+01 -.595E+01   0.905E+01 0.146E+01 0.599E+01   0.961E-01 0.416E-02 -.497E-01
   -.956E+01 0.104E+01 -.774E+01   0.791E+01 -.100E+01 0.762E+01   0.132E+01 0.196E-01 0.782E-01
   -.802E+01 -.821E+01 -.542E+01   0.775E+01 0.890E+01 0.537E+01   0.440E+00 -.875E+00 0.486E-01
   0.187E+00 0.297E+01 -.439E+01   0.109E-01 -.289E+01 0.441E+01   -.569E-01 -.263E-01 -.162E-01
   -.500E+01 0.231E+01 -.302E+01   0.487E+01 -.237E+01 0.303E+01   0.154E+00 0.749E-01 -.728E-02
   -.799E+01 0.227E+01 -.384E+01   0.793E+01 -.274E+01 0.383E+01   0.740E-02 0.343E+00 0.138E-01
   -.379E+01 0.560E+01 -.619E+01   0.347E+01 -.609E+01 0.622E+01   0.258E+00 0.539E+00 -.320E-01
   0.521E+00 0.208E+01 0.216E+00   -.406E+00 -.230E+01 -.209E+00   -.914E-01 0.160E+00 0.693E-02
   0.141E+02 -.288E+02 -.505E+01   -.108E+02 0.350E+02 0.497E+01   -.350E+01 -.638E+01 0.322E-02
   0.473E+02 -.571E+01 -.255E+01   -.427E+02 0.480E+01 0.179E+01   -.511E+01 0.510E+00 0.633E+00
   0.295E+01 0.328E+02 -.108E+01   0.147E+00 -.379E+02 0.101E+01   -.351E+01 0.537E+01 0.549E-01
   0.109E+01 0.208E+02 -.117E+02   -.408E+01 -.258E+02 0.117E+02   0.347E+01 0.521E+01 -.815E-01
   0.111E+01 -.313E+02 -.920E+01   -.116E+02 0.485E+02 0.966E+01   0.100E+02 -.164E+02 -.454E+00
   -.405E+02 -.951E+01 0.147E+02   0.273E+02 0.843E+01 -.156E+02   0.124E+02 0.735E+00 0.817E+00
   0.457E+02 0.726E+02 0.767E+02   -.472E+02 -.777E+02 -.747E+02   0.255E+01 0.323E+01 -.184E+01
   0.439E+02 -.103E+03 0.102E+03   -.439E+02 0.110E+03 -.998E+02   0.275E+00 -.482E+01 -.242E+01
   -.930E+01 0.717E+01 0.394E+01   -.355E-12 -.256E-12 -.568E-13   0.867E+01 -.660E+01 -.392E+01

 POSITION                                       TOTAL-FORCE (eV/Angst)
      2.82057     -0.00113      9.95898        -0.138594      0.034010      0.002828
      0.70343      1.25289      9.95729        -0.015730      0.044893      0.010957
      1.40465     -0.00290      9.95644         0.126098      0.000269      0.013378
      3.53535      1.24596      9.96058         0.053488      0.060342      0.000104
      2.84697      2.50065      9.96295         0.003497     -0.077786      0.004363
      0.69630      3.74499      9.96872        -0.076534     -0.019109      0.000226
      1.41410      2.49998      9.96331         0.002164     -0.042442      0.003547
      3.59100      3.74026      9.95642         0.141745     -0.129985     -0.022429
      2.84594      4.98812      9.96280        -0.051376     -0.009536      0.002892
      0.69379      6.23894      9.97554        -0.011459     -0.029960     -0.003787
      1.41888      4.99168      9.97200         0.066898      0.066070     -0.017403
      3.55731      6.23956      9.95506         0.165180      0.128944     -0.010107
      2.84645      7.49447      9.96172        -0.243807     -0.016245      0.006950
      0.69486      8.73964      9.97167        -0.132661      0.069798      0.002156
      1.41842      7.48999      9.97315         0.181889     -0.032644     -0.008461
      3.58824      8.74739      9.95442         0.133014      0.077115     -0.028778
      2.84012      9.98872      9.96418         0.009777      0.081865     -0.010370
      0.69902     11.23537      9.95819        -0.022434     -0.049695      0.015080
      1.41067      9.98757      9.96536        -0.030284     -0.005791      0.008189
      3.52078     11.24881      9.95943         0.070810     -0.097302      0.002343
      7.08381     -0.00340      9.96079        -0.097275      0.023413      0.009802
      4.95954      1.23558      9.96044        -0.026353     -0.030846      0.019618
      5.66507     -0.00011      9.96041         0.065921      0.050160      0.006544
      7.80765      1.21985      9.95962        -0.002823      0.022866      0.011439
      7.11241      2.44303      9.95396         0.187628      0.255483     -0.017125
      5.67241      2.46652      9.95322        -0.123272      0.072229     -0.004618
      7.08397     10.05035      9.96092         0.142815     -0.148057     -0.027485
      4.93983     11.26547      9.95816        -0.057474     -0.063551      0.003879
      5.64817     10.04162      9.94995        -0.145995     -0.152528     -0.019581
      7.79553     11.26745      9.96450         0.047146     -0.073513      0.011973
     11.34730     12.48448      9.95593        -0.130934      0.015867      0.017049
      9.22799      1.22550      9.95977        -0.043384      0.053424      0.005477
      9.93244     12.48153      9.96063         0.120373      0.061470      0.005031
     12.04994      1.24516      9.95610         0.011067      0.049340      0.014150
     11.33391      2.49098      9.96077         0.022628     -0.035571      0.002628
      9.14161      3.70769      9.95127        -0.361481     -0.079766     -0.021132
      9.90420      2.48045      9.95922        -0.023413     -0.039297     -0.003176
     12.03868      3.73819      9.96728         0.087025     -0.010587     -0.000689
     11.30148      4.97843      9.96856         0.023107      0.083937     -0.014437
      9.16429      6.23702      9.93158        -0.030668      0.163636     -0.038092
      9.86532      4.96938      9.95287         0.016731      0.143905     -0.004285
     12.02757      6.22948      9.97396         0.013061     -0.057139     -0.001533
     11.31094      7.48228      9.97412        -0.152315     -0.056887     -0.013586
      9.14988      8.74585      9.96652        -0.263559      0.059486     -0.036687
      9.88570      7.49450      9.96036         0.198501     -0.242121      0.002049
     12.03980      8.73197      9.97376         0.143837      0.058172     -0.002107
     11.32915      9.98199      9.96912         0.025165      0.008323      0.006775
      9.21679     11.24167      9.96758        -0.059566     -0.104688     -0.002069
      9.89989      9.98599      9.97318        -0.044840      0.087548     -0.004221
     12.04600     11.22793      9.95899         0.025930     -0.047356      0.014368
      5.01548      3.72532      9.94076        -0.357391     -0.501884     -0.077913
      4.95679      6.22808      9.89998        -0.763089     -0.384318     -0.102628
      5.00973      8.77332      9.92815        -0.592101      0.530885     -0.011936
      7.73126      8.79690      9.95367         0.656675      0.481741     -0.074510
      7.76155      3.65367      9.94586         0.338211     -0.578307     -0.025711
      7.83047      6.25767      9.86530         0.274010     -0.265475     -0.004194
      6.40403      5.10596      9.80677         0.393626     -0.527899      0.215407
      6.40918      7.35930      9.77155         0.250794      1.125094      0.189848
    total drift:                                0.004256      0.005808      0.004642

  FREE ENERGIE OF THE ION-ELECTRON SYSTEM (eV)
  free  energy   TOTEN  =      -608.36527918 eV

  energy  without entropy=     -608.36527918  energy(sigma->0) =     -608.36527918

 stress matrix after NEB project (eV)
    -43.97725      0.27036     -0.03289
      0.27038    -40.80071     -0.08001
     -0.03161     -0.07431     -0.36684
  FORCES: max atom, RMS     1.168236    0.319943
  FORCE total and by dimension    2.436614    1.125094
  Stress total and by dimension   59.991588   43.977247
 writing wavefunctions

 total charge

[...]

 magnetization (x)

# of ion       s       p       d       tot
    1       -0.001  -0.014   0.000  -0.015
    2       -0.001  -0.013   0.000  -0.014
    3        0.001   0.013   0.000   0.015
    4        0.001   0.018   0.000   0.020
    5       -0.002  -0.016   0.000  -0.017
    6       -0.001  -0.015   0.000  -0.016
    7        0.001   0.014   0.000   0.016
    8        0.003   0.028   0.000   0.030
    9       -0.005  -0.059   0.000  -0.064
   10       -0.003  -0.040   0.000  -0.043
   11        0.002   0.025   0.000   0.027
   12        0.005   0.047   0.000   0.051
   13       -0.004  -0.051   0.000  -0.055
   14       -0.001  -0.012   0.000  -0.013
   15        0.002   0.025   0.000   0.027
   16        0.002   0.027   0.000   0.029
   17       -0.002  -0.016   0.000  -0.018
   18       -0.001  -0.012   0.000  -0.013
   19        0.001   0.012   0.000   0.013
   20        0.002   0.020   0.000   0.021
   21       -0.002  -0.020   0.000  -0.021
   22       -0.002  -0.019   0.000  -0.021
   23        0.001   0.016   0.000   0.017
   24        0.000   0.006   0.000   0.007
   25       -0.001  -0.012   0.000  -0.014
   26        0.001   0.021   0.000   0.022
   27       -0.001  -0.003   0.000  -0.004
   28       -0.002  -0.020   0.000  -0.022
   29        0.001   0.028   0.000   0.029
   30       -0.000   0.001   0.000   0.001
   31       -0.000  -0.005   0.000  -0.006
   32       -0.000  -0.001   0.000  -0.001
   33        0.000   0.007   0.000   0.007
   34        0.001   0.009   0.000   0.010
   35       -0.001  -0.010   0.000  -0.011
   36       -0.001  -0.007   0.000  -0.008
   37        0.000   0.006   0.000   0.006
   38        0.001   0.014   0.000   0.015
   39       -0.002  -0.022   0.000  -0.023
   40       -0.002  -0.027   0.000  -0.028
   41        0.000   0.013   0.000   0.013
   42        0.002   0.019   0.000   0.021
   43       -0.001  -0.016   0.000  -0.018
   44       -0.000  -0.002   0.000  -0.002
   45        0.001   0.016   0.000   0.017
   46        0.001   0.014   0.000   0.015
   47       -0.001  -0.009   0.000  -0.010
   48        0.000   0.002   0.000   0.002
   49       -0.000   0.002   0.000   0.001
   50        0.001   0.009   0.000   0.009
   51       -0.013  -0.076   0.000  -0.089
   52       -0.024  -0.244   0.000  -0.268
   53       -0.014  -0.075   0.000  -0.089
   54       -0.015  -0.051   0.000  -0.065
   55       -0.004  -0.004   0.000  -0.009
   56       -0.008  -0.103   0.000  -0.111
   57        0.021  -0.000   2.006   2.027
   58        0.056   0.007   2.619   2.682
tot         -0.008  -0.554   4.625   4.063