 vasp.5.4.4.18Apr17-6-g9f103f2a35 (build Feb 25 2019 10:51:38) complex

 executed on             LinuxIFC date 2021.08.09  11:46:11

 INCAR:
 POTCAR:    PAW_PBE C 08Apr2002
 POTCAR:    PAW_PBE N 08Apr2002
 POTCAR:    PAW_PBE Fe 06Sep2000
 POTCAR:    PAW_PBE Co 02Aug2007

 POTCAR:    PAW_PBE C 08Apr2002
   VRHFIN =C: s2p2

   TITEL  = PAW_PBE C 08Apr2002
   POMASS =   12.011; ZVAL   =    4.000    mass and valenz
   ENMAX  =  400.000; ENMIN  =  300.000 eV

 POTCAR:    PAW_PBE N 08Apr2002
   VRHFIN =N: s2p3

   TITEL  = PAW_PBE N 08Apr2002
   POMASS =   14.001; ZVAL   =    5.000    mass and valenz
   ENMAX  =  400.000; ENMIN  =  300.000 eV

 POTCAR:    PAW_PBE Fe 06Sep2000
   VRHFIN =Fe:  d7 s1

   TITEL  = PAW_PBE Fe 06Sep2000
   POMASS =   55.847; ZVAL   =    8.000    mass and valenz
   ENMAX  =  267.882; ENMIN  =  200.911 eV

 POTCAR:    PAW_PBE Co 02Aug2007
   VRHFIN =Co: d8 s1

   TITEL  = PAW_PBE Co 02Aug2007
   POMASS =   58.933; ZVAL   =    9.000    mass and valenz
   ENMAX  =  267.968; ENMIN  =  200.976 eV

  PAW_PBE C 08Apr2002                   :
  PAW_PBE N 08Apr2002                   :
  PAW_PBE Fe 06Sep2000                  :
  PAW_PBE Co 02Aug2007                  :

 POSCAR:  C  N Fe Co
  positions in cartesian coordinates
 exchange correlation table for  LEXCH =        8
   RHO(1)=    0.500       N(1)  =     2000
   RHO(2)=  100.500       N(2)  =     4000

 VTST: version 3.2, (02/03/18)

 CHAIN: initializing optimizer

 OPT: Using VASP Conjugate-Gradient optimizer
 CHAIN: Read ICHAIN            0

 POSCAR:  C  N Fe Co
  positions in cartesian coordinates

 ion  position               nearest neighbor table
   1  0.221  0.999  0.500-   4 1.42   3 1.43  19 1.43
   2  0.052  0.101  0.500-   7 1.42   3 1.43  34 1.43
   3  0.110  0.001  0.500-  17 1.42   2 1.43   1 1.43
   4  0.275  0.099  0.500-   1 1.42   5 1.42  21 1.43
   5  0.218  0.200  0.500-   8 1.41   4 1.42   7 1.43
   6  0.052  0.301  0.500-   7 1.42  11 1.43  38 1.43
   7  0.107  0.201  0.500-   6 1.42   2 1.42   5 1.43
   8  0.273  0.298  0.500-  51 1.38   5 1.41   9 1.43
   9  0.218  0.400  0.500-  50 1.39  11 1.41   8 1.43
  10  0.055  0.501  0.500-  11 1.41  41 1.42  14 1.44
  11  0.109  0.400  0.500-  10 1.41   9 1.41   6 1.43
  12  0.226  0.595  0.500-  50 1.38  14 1.44  15 1.47
  13  0.058  0.701  0.500-  18 1.42  14 1.43  45 1.43
  14  0.114  0.600  0.500-  13 1.43  10 1.44  12 1.44
  15  0.284  0.697  0.500-  53 1.37  16 1.44  12 1.47
  16  0.224  0.798  0.500-  19 1.43  18 1.44  15 1.44
  17  0.055  0.901  0.500-   3 1.42  18 1.43  49 1.43
  18  0.113  0.800  0.500-  13 1.42  17 1.43  16 1.44
  19  0.278  0.898  0.500-  16 1.43  28 1.43   1 1.43
  20  0.553  0.001  0.500-  22 1.42  30 1.43  23 1.44
  21  0.386  0.101  0.500-   4 1.43  22 1.43  25 1.44
  22  0.443  0.000  0.500-  20 1.42  21 1.43  28 1.44
  23  0.606  0.104  0.500-  32 1.44  24 1.44  20 1.44
  24  0.549  0.206  0.500-  23 1.44  25 1.44  26 1.46
  25  0.438  0.205  0.500-  51 1.38  24 1.44  21 1.44
  26  0.605  0.309  0.500-  52 1.34  36 1.45  24 1.46
  27  0.558  0.795  0.500-  54 1.38  30 1.45  29 1.48
  28  0.389  0.898  0.500-  19 1.43  22 1.44  29 1.45
  29  0.443  0.793  0.500-  53 1.37  28 1.45  27 1.48
  30  0.610  0.900  0.500-  47 1.43  20 1.43  27 1.45
  31  0.886  0.003  0.500-  34 1.42  49 1.43  33 1.44
  32  0.718  0.105  0.500-  33 1.43  23 1.44  37 1.44
  33  0.775  0.004  0.500-  47 1.43  32 1.43  31 1.44
  34  0.941  0.103  0.500-  31 1.42  35 1.43   2 1.43
  35  0.885  0.204  0.500-  38 1.42  34 1.43  37 1.44
  36  0.718  0.309  0.500-  37 1.43  40 1.45  26 1.45
  37  0.773  0.206  0.500-  36 1.43  35 1.44  32 1.44
  38  0.941  0.303  0.500-  39 1.42  35 1.42   6 1.43
  39  0.886  0.405  0.500-  38 1.42  41 1.43  40 1.44
  40  0.775  0.409  0.500-  55 1.38  39 1.44  36 1.45
  41  0.945  0.503  0.500-  42 1.42  10 1.42  39 1.43
  42  0.890  0.604  0.500-  44 1.41  41 1.42  45 1.42
  43  0.723  0.705  0.500-  54 1.39  48 1.42  44 1.43
  44  0.780  0.604  0.500-  55 1.38  42 1.41  43 1.43
  45  0.946  0.703  0.500-  46 1.42  42 1.42  13 1.43
  46  0.890  0.803  0.500-  45 1.42  49 1.42  48 1.43
  47  0.721  0.903  0.500-  48 1.42  33 1.43  30 1.43
  48  0.778  0.803  0.500-  43 1.42  47 1.42  46 1.43
  49  0.944  0.903  0.500-  46 1.42  31 1.43  17 1.43
  50  0.276  0.495  0.499-  12 1.38   9 1.39  56 1.95
  51  0.380  0.300  0.499-  25 1.38   8 1.38  56 1.98
  52  0.554  0.404  0.500-  26 1.34  57 1.78  56 1.78
  53  0.391  0.697  0.500-  29 1.37  15 1.37
  54  0.615  0.700  0.500-  27 1.38  43 1.39  57 1.94
  55  0.725  0.509  0.501-  40 1.38  44 1.38  57 1.91
  56  0.423  0.455  0.499-  52 1.78  50 1.95  51 1.98  57 2.32
  57  0.580  0.546  0.500-  52 1.78  55 1.91  54 1.94  56 2.32

  LATTYP: Found a triclinic cell.
 ALAT       =    12.8655359298
 B/A-ratio  =     0.9540047069
 C/A-ratio  =     1.5639308829
 COS(alpha) =     0.0001617441
 COS(beta)  =     0.0012074987
 COS(gamma) =     0.0152622786

  Lattice vectors:

 A1 = (  12.8651678996,   0.0969974279,   0.0078213011)
 A2 = (   0.0947947099,  12.2734157178,   0.0010478620)
 A3 = (   0.0120533403,   0.0014435786,  20.1208053041)

Analysis of symmetry for initial positions (statically):
 Subroutine PRICEL returns:
 Original cell was already a primitive cell.

 Routine SETGRP: Setting up the symmetry group for a
 triclinic supercell.

 Subroutine GETGRP returns: Found  1 space group operations
 (whereof  1 operations were pure point group operations)
 out of a pool of  2 trial point group operations.

The static configuration has the point symmetry C_1 .

Analysis of symmetry for dynamics (positions and initial velocities):
 Subroutine PRICEL returns:
 Original cell was already a primitive cell.

[...]

The dynamic configuration has the point symmetry C_1 .

Analysis of structural, dynamic, and magnetic symmetry:
 Subroutine PRICEL returns:
 Original cell was already a primitive cell.

 Routine SETGRP: Setting up the symmetry group for a
 triclinic supercell.

 Subroutine GETGRP returns: Found  1 space group operations
 (whereof  1 operations were pure point group operations)
 out of a pool of  2 trial point group operations.

The magnetic configuration has the point symmetry C_1 .

 Subroutine INISYM returns: Found  1 space group operations
 (whereof  1 operations are pure point group operations),
 and found     1 'primitive' translations

 KPOINTS: KPOINTS created by Atomic Simulation Env

Automatic generation of k-mesh.
Space group operators:
 irot       det(A)        alpha          n_x          n_y          n_z        tau_x        tau_y        tau_z
    1     1.000000     0.000001     1.000000     0.000000     0.000000     0.000000     0.000000     0.000000

 Subroutine IBZKPT returns following result:

 Found      2 irreducible k-points:

 Following reciprocal coordinates:
            Coordinates               Weight
  0.250000  0.250000  0.000000      2.000000
 -0.250000  0.250000  0.000000      2.000000

 Following cartesian coordinates:
            Coordinates               Weight
  0.019280  0.020220 -0.000013      2.000000
 -0.019587  0.020521  0.000010      2.000000

 Subroutine IBZKPT_HF returns following result:

 Found      4 k-points in 1st BZ
 the following      4 k-points will be used (e.g. in the exchange kernel)
 Following reciprocal coordinates:   # in IRBZ
  0.250000  0.250000  0.000000    0.25000000   1 t-inv F
 -0.250000  0.250000  0.000000    0.25000000   2 t-inv F
 -0.250000 -0.250000  0.000000    0.25000000   1 t-inv T
  0.250000 -0.250000  0.000000    0.25000000   2 t-inv T

 SYSTEM =  unknown system
 POSCAR =   C  N Fe Co

 Startparameter for this run:
   NWRITE =      2    write-flag & timer
   PREC   = accura    normal or accurate (medium, high low for compatibility)
   ISTART =      1    job   : 0-new  1-cont  2-samecut
   ICHARG =      0    charge: 1-file 2-atom 10-const
   ISPIN  =      2    spin polarized calculation?
   LNONCOLLINEAR =      F non collinear calculations
   LSORBIT =      F    spin-orbit coupling
   INIWAV =      1    electr: 0-lowe 1-rand  2-diag
   LASPH  =      T    aspherical Exc in radial PAW
   METAGGA=      F    non-selfconsistent MetaGGA calc.

 Electronic Relaxation 1
   ENCUT  =  500.0 eV  36.75 Ry    6.06 a.u.  23.46 22.38 36.68*2*pi/ulx,y,z
   ENINI  =  500.0     initial cutoff
   ENAUG  =  644.9 eV  augmentation charge cutoff
   NELM   =    250;   NELMIN=  2; NELMDL=  0     # of ELM steps
   EDIFF  = 0.1E-03   stopping-criterion for ELM
   LREAL  =      F    real-space projection
   NLSPLINE    = F    spline interpolate recip. space projectors
   LCOMPAT=      F    compatible to vasp.4.4
   GGA_COMPAT  = T    GGA compatible to vasp.4.4-vasp.4.6
   LMAXPAW     = -100 max onsite density
   LMAXMIX     =    2 max onsite mixed and CHGCAR
   VOSKOWN=      0    Vosko Wilk Nusair interpolation
   ROPT   =    0.00000   0.00000   0.00000   0.00000
 Ionic relaxation
   EDIFFG = -.3E-01   stopping-criterion for IOM
   NSW    =      0    number of steps for IOM
   NBLOCK =      1;   KBLOCK =      1    inner block; outer block
   IBRION =     -1    ionic relax: 0-MD 1-quasi-New 2-CG
   NFREE  =      1    steps in history (QN), initial steepest desc. (CG)
   ISIF   =      2    stress and relaxation
   IWAVPR =     10    prediction:  0-non 1-charg 2-wave 3-comb
   ISYM   =      3    0-nonsym 1-usesym 2-fastsym
   LCORR  =      T    Harris-Foulkes like correction to forces

   POTIM  = 0.5000    time-step for ionic-motion
   TEIN   =    0.0    initial temperature
   TEBEG  =    0.0;   TEEND  =   0.0 temperature during run
   SMASS  =  -3.00    Nose mass-parameter (am)
   estimated Nose-frequenzy (Omega)   =  0.10E-29 period in steps =****** mass=  -0.378E-26a.u.
   SCALEE = 1.0000    scale energy and forces
   NPACO  =    256;   APACO  = 16.0  distance and # of slots for P.C.
   PSTRESS=    0.0 pullay stress

  Mass of Ions in am
   POMASS =  12.01 14.00 55.85 58.93
  Ionic Valenz
   ZVAL   =   4.00  5.00  8.00  9.00
  Atomic Wigner-Seitz radii
  virtual crystal weights
   VCA    =   1.00  1.00  1.00  1.00
   NELECT =     243.0000    total number of electrons
   NUPDOWN=      -1.0000    fix difference up-down

 DOS related values:
   EMIN   =  10.00;   EMAX   =-10.00  energy-range for DOS
   EFERMI =   0.00
   ISMEAR =     0;   SIGMA  =   0.10  broadening in eV -4-tet -1-fermi 0-gaus

 Electronic relaxation 2 (details)
   IALGO  =     53    algorithm
   LDIAG  =      T    sub-space diagonalisation (order eigenvalues)
   LSUBROT=      F    optimize rotation matrix (better conditioning)
   TURBO    =      0    0=normal 1=particle mesh
   IRESTART =      0    0=no restart 2=restart with 2 vectors
   NREBOOT  =      0    no. of reboots
   NMIN     =      0    reboot dimension
   EREF     =   0.00    reference energy to select bands
   IMIX   =      4    mixing-type and parameters
     AMIX     =   0.40;   BMIX     =  1.00
     AMIX_MAG =   1.60;   BMIX_MAG =  1.00
     AMIN     =   0.10
     WC   =   100.;   INIMIX=   1;  MIXPRE=   1;  MAXMIX= -45

 Intra band minimization:
   WEIMIN = 0.0000     energy-eigenvalue tresh-hold
   EBREAK =  0.16E-06  absolut break condition
   DEPER  =   0.30     relativ break condition

[...]
   27        0.852   1.694   0.000   2.546
   28        0.861   1.754   0.000   2.615
   29        0.851   1.706   0.000   2.557
   30        0.860   1.752   0.000   2.611
   31        0.865   1.774   0.000   2.639
   32        0.862   1.758   0.000   2.620
   33        0.863   1.764   0.000   2.627
   34        0.867   1.771   0.000   2.637
   35        0.865   1.770   0.000   2.634
   36        0.855   1.766   0.000   2.621
   37        0.862   1.748   0.000   2.611
   38        0.867   1.774   0.000   2.642
   39        0.866   1.773   0.000   2.639
   40        0.856   1.717   0.000   2.573
   41        0.869   1.783   0.000   2.652
   42        0.872   1.797   0.000   2.669
   43        0.862   1.756   0.000   2.618
   44        0.865   1.763   0.000   2.628
   45        0.867   1.780   0.000   2.647
   46        0.867   1.784   0.000   2.651
   47        0.868   1.763   0.000   2.631
   48        0.869   1.782   0.000   2.651
   49        0.867   1.772   0.000   2.638
   50        1.225   2.686   0.000   3.911
   51        1.233   2.665   0.000   3.898
   52        1.255   2.613   0.000   3.868
   53        1.245   2.603   0.000   3.849
   54        1.230   2.660   0.000   3.890
   55        1.229   2.679   0.000   3.908
   56        0.447   0.586   6.170   7.203
   57        0.471   0.565   7.275   8.311
tot         50.643 103.355  13.444 167.443

 magnetization (x)

[...]

  FORCE on cell =-STRESS in cart. coord.  units (eV):
  Direction    XX          YY          ZZ          XY          YZ          ZX
  Alpha Z    97.06972    97.06972    97.06972
  Ewald   48151.85130 48162.70552-56735.05891    11.17464     6.14323    63.72234
  Hartree 47628.52052 47614.90121-46988.26002    32.69953     7.01628    58.50596
  E(xc)    -715.60254  -715.28262  -729.71415    -0.30667    -0.00999    -0.00355
  Local  -98503.70378-98491.99997100494.89089   -52.39832   -13.38933  -122.16674
  n-local  -140.58889  -144.62447  -133.51872     1.02435     0.07030     0.02899
  augment   167.85624   166.46825   181.32239     0.39764     0.01150     0.00874
  Kinetic  3612.46981  3607.74705  4133.72335     8.63745     0.18593    -0.11413
  Fock     -338.54333  -338.47466  -320.85155    -1.74655    -0.00985     0.03071
  Total     -40.67096   -41.48998    -0.39701    -0.51795     0.01806     0.01231
  in kB     -20.51135   -20.92440    -0.20022    -0.26121     0.00911     0.00621

 VOLUME and BASIS-vectors are now :
  energy-cutoff  :      500.00
  volume of cell :     3176.88
      direct lattice vectors                 reciprocal lattice vectors
    12.865167900  0.096997428  0.007821301     0.077733816 -0.000600379 -0.000046523
     0.094794710 12.273415718  0.001047862    -0.000614331  0.081481656 -0.000005478
     0.012053340  0.001443579 20.120805304    -0.000030184 -0.000004010  0.049699818

  length of vectors
    12.865535930 12.273781834 20.120808966     0.077736149  0.081483972  0.049699828

 FORCES acting on ions:
    Electron-Ion                     Ewald-Force                    Non-Local-Force
   0.140E+01 0.692E+01 -.842E+00   -.174E+01 -.692E+01 0.846E+00   0.353E+00 0.142E-01 -.687E-02
   0.423E+01 0.521E+01 -.653E+00   -.431E+01 -.534E+01 0.653E+00   0.871E-01 0.128E+00 -.202E-02
   -.178E+01 0.120E+01 -.494E+00   0.163E+01 -.125E+01 0.491E+00   0.626E-01 0.816E-02 0.218E-02
   0.133E+01 0.121E+02 -.387E+00   -.149E+01 -.125E+02 0.379E+00   0.111E+00 0.349E+00 0.464E-02
   0.122E+02 0.130E+02 -.544E+00   -.128E+02 -.132E+02 0.548E+00   0.493E+00 0.217E+00 -.113E-01
   0.643E+01 0.230E+01 -.671E+00   -.663E+01 -.265E+01 0.666E+00   0.237E+00 0.341E+00 0.205E-02
   0.320E+01 0.684E+01 -.106E+01   -.361E+01 -.694E+01 0.106E+01   0.380E+00 0.480E-01 -.854E-02
   0.339E+02 0.114E+02 0.127E+01   -.373E+02 -.118E+02 -.125E+01   0.335E+01 0.288E+00 -.177E-01
   0.238E+02 0.138E+02 0.907E+00   -.256E+02 -.167E+02 -.894E+00   0.187E+01 0.275E+01 -.160E-01
   0.221E+01 -.811E+01 -.192E+00   -.245E+01 0.829E+01 0.186E+00   0.755E-01 -.214E+00 0.425E-02
   0.102E+02 0.595E+01 -.349E+00   -.107E+02 -.634E+01 0.354E+00   0.531E+00 0.306E+00 -.942E-02
   -.276E+01 -.407E+02 0.415E+00   0.132E+01 0.441E+02 -.399E+00   0.130E+01 -.325E+01 -.160E-01
   -.282E+01 -.257E+01 -.263E-01   0.284E+01 0.291E+01 0.275E-01   0.433E-02 -.220E+00 -.189E-02
   -.174E+01 -.952E+01 -.211E+00   0.174E+01 0.995E+01 0.211E+00   0.167E+00 -.345E+00 -.500E-02
   0.190E+02 0.117E+02 -.389E-01   -.215E+02 -.114E+02 0.374E-01   0.241E+01 -.289E+00 0.495E-03
   0.415E+01 0.276E+01 -.434E+00   -.447E+01 -.310E+01 0.436E+00   0.307E+00 0.338E+00 -.271E-02
   0.446E+00 0.175E+01 0.378E-01   -.454E+00 -.165E+01 -.357E-01   0.795E-02 -.151E-02 -.170E-02
   -.595E+01 -.399E+01 -.299E-01   0.570E+01 0.401E+01 0.263E-01   0.223E+00 -.962E-01 0.409E-02
   0.802E+00 -.174E+01 -.747E+00   -.917E+00 0.186E+01 0.743E+00   0.752E-01 -.115E+00 0.382E-03
   -.374E+01 -.261E+00 0.182E+00   0.378E+01 0.569E+00 -.189E+00   0.104E+00 -.161E+00 0.683E-02
   -.613E+01 0.127E+02 0.195E+00   0.626E+01 -.133E+02 -.193E+00   -.105E+00 0.409E+00 -.205E-02
   0.128E+01 0.694E+01 -.341E+00   -.983E+00 -.689E+01 0.345E+00   -.413E+00 0.138E-01 -.763E-02
   -.473E+00 0.632E+01 0.221E+00   0.486E+00 -.657E+01 -.216E+00   -.145E-01 0.224E-01 -.532E-02
   -.825E+01 0.141E+02 0.803E+00   0.850E+01 -.141E+02 -.803E+00   -.198E-01 0.249E+00 0.376E-02
   -.223E+02 0.369E+02 0.159E+01   0.242E+02 -.395E+02 -.156E+01   -.224E+01 0.298E+01 -.209E-01
   -.230E+02 0.563E+02 -.583E+00   0.250E+02 -.599E+02 0.590E+00   -.189E+01 0.315E+01 -.136E-01
   0.356E+02 -.281E+02 -.574E+00   -.375E+02 0.308E+02 0.563E+00   0.220E+01 -.280E+01 0.832E-02
   -.649E+01 -.221E+01 -.667E+00   0.687E+01 0.241E+01 0.667E+00   -.329E+00 -.148E+00 -.265E-02
   -.190E+02 -.146E+02 -.552E+00   0.195E+02 0.167E+02 0.553E+00   -.880E+00 -.225E+01 -.233E-02
   0.904E+01 -.701E+01 -.271E-01   -.929E+01 0.762E+01 0.297E-01   0.139E+00 -.563E+00 -.147E-02
   0.261E+01 -.114E+00 0.501E+00   -.258E+01 0.114E+00 -.499E+00   -.494E-02 -.996E-03 0.245E-02
   0.165E+00 0.145E+01 -.133E-01   -.883E-01 -.138E+01 0.143E-01   -.261E-01 -.175E-01 0.120E-03
   -.536E-01 -.301E+01 0.496E+00   0.277E+00 0.337E+01 -.496E+00   -.181E+00 -.400E+00 0.238E-02
   -.340E+00 0.123E+01 -.999E-01   0.244E+00 -.134E+01 0.988E-01   0.974E-01 0.716E-01 0.362E-02
   0.271E+01 0.609E+01 -.545E+00   -.279E+01 -.629E+01 0.549E+00   0.331E-01 0.156E+00 -.247E-02
   -.811E+01 0.173E+02 -.184E+01   0.821E+01 -.174E+02 0.185E+01   -.885E-01 0.144E+00 -.219E-01
   -.127E+01 0.854E+01 -.759E+00   0.120E+01 -.856E+01 0.755E+00   0.616E-01 -.979E-01 0.213E-02
   -.147E+01 0.685E+01 -.524E+00   0.140E+01 -.714E+01 0.525E+00   0.443E-01 0.313E+00 0.259E-02
   -.762E+01 0.986E+01 -.594E+00   0.794E+01 -.102E+02 0.591E+00   -.255E+00 0.235E+00 0.939E-02
   -.207E+02 0.435E+02 -.177E+01   0.220E+02 -.468E+02 0.175E+01   -.139E+01 0.337E+01 0.153E-01
   -.109E+02 0.372E+01 -.382E+00   0.111E+02 -.385E+01 0.389E+00   -.111E+00 0.717E-01 -.360E-02
   -.173E+02 -.896E+01 -.240E+00   0.178E+02 0.942E+01 0.238E+00   -.498E+00 -.246E+00 0.485E-02
   -.299E+02 -.244E+02 -.859E+00   0.333E+02 0.248E+02 0.862E+00   -.340E+01 -.391E+00 -.496E-02
   -.344E+02 -.305E+02 -.129E+01   0.364E+02 0.331E+02 0.128E+01   -.188E+01 -.277E+01 0.940E-02
   -.110E+02 -.527E+01 0.308E+00   0.112E+02 0.554E+01 -.308E+00   -.214E+00 -.334E+00 0.296E-02
   -.238E+01 -.738E+01 0.628E+00   0.286E+01 0.750E+01 -.627E+00   -.457E+00 -.605E-01 0.308E-02
   0.137E+01 -.136E+02 0.410E+00   -.119E+01 0.140E+02 -.410E+00   -.946E-01 -.484E+00 0.218E-02
   -.116E+02 -.147E+02 0.321E+00   0.123E+02 0.151E+02 -.324E+00   -.599E+00 -.347E+00 0.490E-02
   -.450E+01 -.493E+01 0.574E+00   0.450E+01 0.506E+01 -.573E+00   0.114E-01 -.154E+00 0.219E-02
   -.427E+02 -.376E+02 0.280E+01   0.618E+02 0.373E+02 -.291E+01   -.183E+02 0.462E+00 0.117E+00
   -.254E+02 -.123E+02 0.520E+01   0.356E+02 0.296E+02 -.544E+01   -.955E+01 -.171E+02 0.246E+00
   -.340E+01 0.451E+02 0.264E-01   -.293E+01 -.341E+02 -.254E-01   0.582E+01 -.104E+02 0.111E-02
   -.490E+02 0.891E+02 -.323E+00   0.639E+02 -.115E+03 0.311E+00   -.139E+02 0.242E+02 0.747E-02
   0.554E+02 -.343E+01 -.189E+01   -.652E+02 -.140E+02 0.197E+01   0.931E+01 0.172E+02 -.734E-01
   -.478E+00 0.214E+02 -.428E+01   -.184E+02 -.214E+02 0.442E+01   0.184E+02 -.160E+00 -.151E+00
   0.683E+02 -.104E+03 0.121E+02   -.693E+02 0.101E+03 -.120E+02   -.267E+00 0.325E+01 -.144E+00
   0.985E+02 -.112E+03 -.416E+01   -.955E+02 0.112E+03 0.414E+01   -.245E+01 0.194E+01 0.314E-01
   0.118E+02 -.202E+02 0.469E-01   0.568E-13 0.711E-13 -.266E-14   -.114E+02 0.196E+02 -.491E-01

 POSITION                                       TOTAL-FORCE (eV/Angst)
      2.94323     12.28690     10.06490         0.032775      0.017256     -0.003337
      0.68941      1.24420     10.06285         0.012792      0.008120     -0.001750
      1.41664      0.01800     10.06265        -0.096328     -0.043693     -0.000653
      3.55347      1.24635     10.06181        -0.048149      0.005123     -0.003130
      2.82903      2.47101     10.06072        -0.008703      0.037168     -0.007740
      0.69976      3.70150     10.06273         0.055342     -0.003257     -0.002674
      1.40187      2.47257     10.06336        -0.014073     -0.042986     -0.007051
      3.54875      3.68592     10.05376         0.110964     -0.012691     -0.000331
      2.85413      4.93039     10.05503         0.199053      0.060805     -0.003120
      0.76158      6.16074     10.06125        -0.155414     -0.053891     -0.001623
      1.44007      4.92137     10.06047         0.005521     -0.062822     -0.005048
      2.96589      7.32552     10.05791        -0.068592     -0.063058     -0.000882
      0.81391      8.60765     10.06115         0.025892      0.107415     -0.000739
      1.52971      7.37409     10.06069         0.176856      0.071735     -0.005581
      3.72927      8.58714     10.06187         0.032715      0.016226     -0.000939
      2.96696      9.81296     10.06353         0.007795      0.018242     -0.000852
      0.80352     11.06191     10.06163         0.005645      0.104260      0.000432
      1.53098      9.83132     10.06189        -0.020915     -0.082996      0.000658
      3.67074     11.05357     10.06531        -0.034535     -0.001165     -0.003870
      7.12624      0.07195     10.06358         0.139031      0.135847      0.000870
      4.97937      1.27863     10.06016         0.009042     -0.226557      0.000337
      5.70351      0.04506     10.06349        -0.132797      0.066463     -0.003661
      7.81806      1.33980     10.06335         0.003048     -0.221862     -0.000371
      7.09432      2.58324     10.06016         0.232604      0.284216      0.003975
      5.65554      2.55527     10.05476        -0.449151      0.562711      0.004336
      7.82294      3.84679     10.06530         0.018928     -0.176295     -0.007640
      7.25792      9.81482     10.06845         0.400374     -0.243444     -0.001904
      5.09972     11.05793     10.06593         0.034251      0.035868     -0.002891
      5.78183      9.78098     10.06625        -0.454975     -0.289477     -0.001398
      7.93274     11.10005     10.06648        -0.091752      0.014991      0.001093
     11.40947      0.12126     10.06618         0.025826      0.001566      0.005340
      9.25412      1.36277     10.06609         0.049362      0.050331      0.001204
      9.97435      0.12684     10.06521         0.032008     -0.059781      0.002638
     12.12200      1.35165     10.06881         0.002530     -0.030433      0.002746
     11.40729      2.58623     10.07024        -0.035399     -0.029992      0.000514
      9.27110      3.85781     10.07213         0.011450      0.021756     -0.011971
      9.97133      2.60901     10.06980        -0.001039     -0.124995     -0.002435
     12.13502      3.81079     10.07099        -0.029207      0.041028      0.003823
     11.44661      5.05366     10.07190         0.056738     -0.081533      0.007136
     10.00970      5.10005     10.07468        -0.178701      0.290390     -0.004341
     12.20676      6.26376     10.07075         0.107417     -0.051178      0.003445
     11.51376      7.49944     10.07064        -0.089955      0.195763      0.003024
      9.37265      8.71941     10.07135        -0.271195     -0.108811     -0.002273
     10.10283      7.49060     10.07368         0.011305     -0.358406      0.000656
     12.24818      8.71833     10.06836        -0.034862     -0.081504      0.003912
     11.52789      9.93890     10.06701         0.000401      0.054937      0.004669
      9.36528     11.15564     10.06627         0.076544     -0.059663      0.002276
     10.09492      9.93704     10.06761         0.035648      0.053954      0.002587
     12.23453     11.16983     10.06723         0.007695     -0.034280      0.002966
      3.60235      6.10309     10.05164        -0.787475      0.207867      0.015173
      4.92756      3.72447     10.04702        -0.138745     -1.264727      0.023785
      7.16913      5.01230     10.06208         0.018362     -0.336749      0.002433
      5.10001      8.59347     10.06382        -0.188089      0.808276     -0.003572
      7.98765      8.64679     10.07174         0.267668      1.274491     -0.004786
      9.37533      6.31997     10.07769         1.039300     -0.209436     -0.014469
      5.49463      5.62363     10.04272        -0.466414     -0.276226      0.006486
      7.51530      6.76050     10.07045         0.551582      0.085105      0.004519
    total drift:                                0.002505      0.006674     -0.000319

  FREE ENERGIE OF THE ION-ELECTRON SYSTEM (eV)
  free  energy   TOTEN  =      -598.38758160 eV

  energy  without entropy=     -598.38009964  energy(sigma->0) =     -598.38384062

 stress matrix after NEB project (eV)
    -40.67096     -0.51814      0.01231
     -0.51795    -41.48998      0.01896
      0.01154      0.01806     -0.39701
  FORCES: max atom, RMS     1.302305    0.386704
  FORCE total and by dimension    2.919552    1.274491
  Stress total and by dimension   58.105427   41.489978
 writing wavefunctions

 total charge

[...]

 magnetization (x)

# of ion       s       p       d       tot
    1        0.000   0.007   0.000   0.008
    2       -0.000  -0.003   0.000  -0.003
    3        0.000   0.005   0.000   0.006
    4       -0.000  -0.003   0.000  -0.003
    5        0.000  -0.001   0.000  -0.001
    6        0.000   0.005   0.000   0.005
    7        0.000  -0.000   0.000  -0.000
    8       -0.000   0.001   0.000   0.001
    9        0.001   0.007   0.000   0.009
   10       -0.000  -0.008   0.000  -0.008
   11       -0.000  -0.004   0.000  -0.005
   12        0.001   0.011   0.000   0.012
   13        0.000   0.007   0.000   0.007
   14       -0.000  -0.001   0.000  -0.001
   15       -0.001  -0.004   0.000  -0.004
   16        0.000   0.001   0.000   0.001
   17       -0.000  -0.003   0.000  -0.003
   18       -0.000  -0.000   0.000  -0.000
   19       -0.000  -0.003   0.000  -0.004
   20        0.001   0.012   0.000   0.013
   21        0.001   0.004   0.000   0.004
   22       -0.000  -0.002   0.000  -0.002
   23       -0.001  -0.007   0.000  -0.008
   24        0.000   0.006   0.000   0.006
   25       -0.001  -0.009   0.000  -0.010
   26        0.001   0.000   0.000   0.001
   27        0.002   0.022   0.000   0.024
   28        0.000   0.000   0.000   0.001
   29       -0.001  -0.006   0.000  -0.007
   30       -0.001  -0.006   0.000  -0.006
   31        0.000   0.001   0.000   0.001
   32        0.001   0.009   0.000   0.010
   33       -0.000   0.002   0.000   0.002
   34        0.000  -0.000   0.000  -0.000
   35       -0.000  -0.005   0.000  -0.006
   36        0.000   0.002   0.000   0.003
   37       -0.000  -0.003   0.000  -0.004
   38        0.000   0.005   0.000   0.006
   39       -0.001  -0.005   0.000  -0.006
   40        0.000   0.001   0.000   0.001
   41       -0.000  -0.004   0.000  -0.004
   42        0.000   0.001   0.000   0.001
   43        0.001  -0.003   0.000  -0.003
   44        0.001   0.006   0.000   0.007
   45        0.000   0.006   0.000   0.006
   46       -0.000  -0.004   0.000  -0.004
   47        0.000   0.003   0.000   0.003
   48       -0.000  -0.001   0.000  -0.001
   49        0.000   0.001   0.000   0.001
   50       -0.004  -0.023   0.000  -0.027
   51        0.007   0.043   0.000   0.050
   52       -0.005  -0.093   0.000  -0.099
   53        0.009   0.061   0.000   0.071
   54       -0.002  -0.006   0.000  -0.008
   55       -0.004  -0.047   0.000  -0.051
   56        0.066   0.041   2.992   3.099
   57       -0.006   0.027   1.612   1.632
tot          0.067   0.043   4.604   4.714