 vasp.5.4.4.18Apr17-6-g9f103f2a35 (build Feb 25 2019 10:51:38) complex

 executed on             LinuxIFC date 2021.06.19  15:46:30

 INCAR:
 POTCAR:    PAW_PBE C 08Apr2002
 POTCAR:    PAW_PBE N 08Apr2002
 POTCAR:    PAW_PBE Cu 22Jun2005
 POTCAR:    PAW_PBE Fe 06Sep2000

 POTCAR:    PAW_PBE C 08Apr2002
   VRHFIN =C: s2p2

   TITEL  = PAW_PBE C 08Apr2002
   POMASS =   12.011; ZVAL   =    4.000    mass and valenz
   ENMAX  =  400.000; ENMIN  =  300.000 eV

 POTCAR:    PAW_PBE N 08Apr2002
   VRHFIN =N: s2p3

   TITEL  = PAW_PBE N 08Apr2002
   POMASS =   14.001; ZVAL   =    5.000    mass and valenz
   ENMAX  =  400.000; ENMIN  =  300.000 eV

 POTCAR:    PAW_PBE Cu 22Jun2005
   VRHFIN =Cu: d10 p1

   TITEL  = PAW_PBE Cu 22Jun2005
   POMASS =   63.546; ZVAL   =   11.000    mass and valenz
   ENMAX  =  295.446; ENMIN  =  221.585 eV

 POTCAR:    PAW_PBE Fe 06Sep2000
   VRHFIN =Fe:  d7 s1

   TITEL  = PAW_PBE Fe 06Sep2000
   POMASS =   55.847; ZVAL   =    8.000    mass and valenz
   ENMAX  =  267.882; ENMIN  =  200.911 eV

  PAW_PBE C 08Apr2002                   :
  PAW_PBE N 08Apr2002                   :
  PAW_PBE Cu 22Jun2005                  :
  PAW_PBE Fe 06Sep2000                  :

 POSCAR:  C  N Cu Fe
  positions in cartesian coordinates
 exchange correlation table for  LEXCH =        8
   RHO(1)=    0.500       N(1)  =     2000
   RHO(2)=  100.500       N(2)  =     4000

 VTST: version 3.2, (02/03/18)

 CHAIN: initializing optimizer

 OPT: Using VASP Conjugate-Gradient optimizer
 CHAIN: Read ICHAIN            0

 POSCAR:  C  N Cu Fe
  positions in cartesian coordinates

 ion  position               nearest neighbor table
   1  0.221  0.003  0.496-   3 1.43  19 1.43   4 1.43
   2  0.055  0.102  0.493-   3 1.43   7 1.44  38 1.44
   3  0.110  0.002  0.494-   2 1.43  17 1.43   1 1.43
   4  0.277  0.103  0.497-  21 1.43   1 1.43   5 1.44
   5  0.224  0.205  0.498-   7 1.44   4 1.44   8 1.45
   6  0.056  0.302  0.494-  11 1.43   7 1.43  42 1.43
   7  0.112  0.203  0.495-   6 1.43   2 1.44   5 1.44
   8  0.280  0.307  0.503-   5 1.45  25 1.47   9 1.47
   9  0.221  0.407  0.505-  55 1.37  11 1.44   8 1.47
  10  0.054  0.502  0.497-  46 1.42  14 1.43  11 1.43
  11  0.110  0.403  0.497-   6 1.43  10 1.43   9 1.44
  12  0.218  0.601  0.508-  55 1.37  14 1.42  15 1.46
  13  0.053  0.702  0.495-  18 1.42  50 1.43  14 1.43
  14  0.109  0.603  0.499-  12 1.42  10 1.43  13 1.43
  15  0.274  0.704  0.508-  58 1.38  16 1.43  12 1.46
  16  0.219  0.802  0.499-  15 1.43  18 1.43  19 1.43
  17  0.054  0.902  0.493-  18 1.43   3 1.43  54 1.43
  18  0.108  0.802  0.495-  13 1.42  17 1.43  16 1.43
  19  0.275  0.903  0.498-  32 1.43  16 1.43   1 1.43
  20  0.554  0.998  0.497-  22 1.43  23 1.43  34 1.44
  21  0.388  0.101  0.497-  26 1.43   4 1.43  22 1.44
  22  0.443  0.000  0.497-  32 1.42  20 1.43  21 1.44
  23  0.611  0.098  0.496-  36 1.43  20 1.43  24 1.43
  24  0.556  0.198  0.498-  27 1.43  26 1.43  23 1.43
  25  0.394  0.303  0.505-  56 1.37  26 1.44   8 1.47
  26  0.445  0.200  0.499-  21 1.43  24 1.43  25 1.44
  27  0.613  0.299  0.500-  40 1.43  24 1.43  28 1.43
  28  0.556  0.397  0.508-  56 1.37  27 1.43  29 1.45
  29  0.614  0.499  0.509-  57 1.38  44 1.42  28 1.45
  30  0.611  0.695  0.507-  57 1.38  48 1.43  31 1.47
  31  0.551  0.795  0.505-  34 1.45  33 1.46  30 1.47
  32  0.386  0.901  0.500-  22 1.42  19 1.43  33 1.43
  33  0.438  0.800  0.507-  58 1.38  32 1.43  31 1.46
  34  0.608  0.896  0.499-  52 1.44  20 1.44  31 1.45
  35  0.887  0.000  0.492-  54 1.43  38 1.43  37 1.44
  36  0.721  0.099  0.494-  37 1.43  41 1.43  23 1.43
  37  0.776  0.999  0.493-  36 1.43  52 1.44  35 1.44
  38  0.944  0.101  0.492-  39 1.43  35 1.43   2 1.44
  39  0.889  0.200  0.492-  38 1.43  42 1.43  41 1.43
  40  0.723  0.299  0.496-  45 1.42  41 1.43  27 1.43
  41  0.778  0.199  0.493-  40 1.43  36 1.43  39 1.43
  42  0.945  0.300  0.492-  39 1.43  43 1.43   6 1.43
  43  0.889  0.400  0.493-  46 1.42  45 1.43  42 1.43
  44  0.723  0.498  0.499-  29 1.42  49 1.43  45 1.43
  45  0.778  0.399  0.495-  40 1.42  43 1.43  44 1.43
  46  0.944  0.501  0.494-  10 1.42  43 1.42  47 1.43
  47  0.888  0.600  0.494-  49 1.42  50 1.43  46 1.43
  48  0.722  0.699  0.498-  53 1.43  30 1.43  49 1.43
  49  0.778  0.599  0.497-  47 1.42  44 1.43  48 1.43
  50  0.942  0.701  0.493-  47 1.43  13 1.43  51 1.43
  51  0.887  0.800  0.492-  54 1.43  50 1.43  53 1.43
  52  0.719  0.898  0.495-  53 1.43  37 1.44  34 1.44
  53  0.776  0.799  0.494-  48 1.43  52 1.43  51 1.43
  54  0.943  0.901  0.492-  35 1.43  51 1.43  17 1.43
  55  0.270  0.506  0.514-  12 1.37   9 1.37  59 2.07
  56  0.451  0.396  0.515-  28 1.37  25 1.37  59 2.07
  57  0.564  0.596  0.518-  29 1.38  30 1.38  60 1.95
  58  0.379  0.708  0.518-  15 1.38  33 1.38  60 1.95
  59  0.372  0.474  0.591-  56 2.07  55 2.07  60 2.29
  60  0.461  0.634  0.586-  57 1.95  58 1.95  59 2.29

  LATTYP: Found a triclinic cell.
 ALAT       =    12.3587000000
 B/A-ratio  =     1.9132406099
 C/A-ratio  =     1.0440175747
 COS(alpha) =     0.0037451239
 COS(beta)  =     0.0099063268
 COS(gamma) =     0.5385228286

  Lattice vectors:

 A1 = (  -0.1224293210,  12.3580935727,   0.0000000000)
 A2 = (  -0.0885540799,  12.7332096257, -19.9236402360)
 A3 = ( -12.9027000000,   0.0000000000,   0.0000000000)

Analysis of symmetry for initial positions (statically):
 Subroutine PRICEL returns:
 Original cell was already a primitive cell.

 Routine SETGRP: Setting up the symmetry group for a
 triclinic supercell.

 Subroutine GETGRP returns: Found  1 space group operations
 (whereof  1 operations were pure point group operations)
 out of a pool of  2 trial point group operations.

The static configuration has the point symmetry C_1 .

Analysis of symmetry for dynamics (positions and initial velocities):
 Subroutine PRICEL returns:
 Original cell was already a primitive cell.

[...]

The dynamic configuration has the point symmetry C_1 .

Analysis of structural, dynamic, and magnetic symmetry:
 Subroutine PRICEL returns:
 Original cell was already a primitive cell.

 Routine SETGRP: Setting up the symmetry group for a
 triclinic supercell.

 Subroutine GETGRP returns: Found  1 space group operations
 (whereof  1 operations were pure point group operations)
 out of a pool of  2 trial point group operations.

The magnetic configuration has the point symmetry C_1 .

 Subroutine INISYM returns: Found  1 space group operations
 (whereof  1 operations are pure point group operations),
 and found     1 'primitive' translations

 KPOINTS: KPOINTS created by Atomic Simulation Env

Automatic generation of k-mesh.
Space group operators:
 irot       det(A)        alpha          n_x          n_y          n_z        tau_x        tau_y        tau_z
    1     1.000000     0.000000     1.000000     0.000000     0.000000     0.000000     0.000000     0.000000

 Subroutine IBZKPT returns following result:

 Found      2 irreducible k-points:

 Following reciprocal coordinates:
            Coordinates               Weight
  0.250000  0.250000  0.000000      2.000000
 -0.250000  0.250000  0.000000      2.000000

 Following cartesian coordinates:
            Coordinates               Weight
  0.019376  0.020422  0.000417      2.000000
 -0.019376  0.020038  0.000344      2.000000

 Subroutine IBZKPT_HF returns following result:

 Found      4 k-points in 1st BZ
 the following      4 k-points will be used (e.g. in the exchange kernel)
 Following reciprocal coordinates:   # in IRBZ
  0.250000  0.250000  0.000000    0.25000000   1 t-inv F
 -0.250000  0.250000  0.000000    0.25000000   2 t-inv F
 -0.250000 -0.250000  0.000000    0.25000000   1 t-inv T
  0.250000 -0.250000  0.000000    0.25000000   2 t-inv T

 SYSTEM =  unknown system
 POSCAR =   C  N Cu Fe

 Startparameter for this run:
   NWRITE =      2    write-flag & timer
   PREC   = accura    normal or accurate (medium, high low for compatibility)
   ISTART =      1    job   : 0-new  1-cont  2-samecut
   ICHARG =      0    charge: 1-file 2-atom 10-const
   ISPIN  =      2    spin polarized calculation?
   LNONCOLLINEAR =      F non collinear calculations
   LSORBIT =      F    spin-orbit coupling
   INIWAV =      1    electr: 0-lowe 1-rand  2-diag
   LASPH  =      T    aspherical Exc in radial PAW
   METAGGA=      F    non-selfconsistent MetaGGA calc.

 Electronic Relaxation 1
   ENCUT  =  500.0 eV  36.75 Ry    6.06 a.u.  23.52 22.53 36.33*2*pi/ulx,y,z
   ENINI  =  500.0     initial cutoff
   ENAUG  =  644.9 eV  augmentation charge cutoff
   NELM   =    250;   NELMIN=  2; NELMDL=  0     # of ELM steps
   EDIFF  = 0.1E-03   stopping-criterion for ELM
   LREAL  =      F    real-space projection
   NLSPLINE    = F    spline interpolate recip. space projectors
   LCOMPAT=      F    compatible to vasp.4.4
   GGA_COMPAT  = T    GGA compatible to vasp.4.4-vasp.4.6
   LMAXPAW     = -100 max onsite density
   LMAXMIX     =    2 max onsite mixed and CHGCAR
   VOSKOWN=      0    Vosko Wilk Nusair interpolation
   ROPT   =    0.00000   0.00000   0.00000   0.00000
 Ionic relaxation
   EDIFFG = -.3E-01   stopping-criterion for IOM
   NSW    =      0    number of steps for IOM
   NBLOCK =      1;   KBLOCK =      1    inner block; outer block
   IBRION =     -1    ionic relax: 0-MD 1-quasi-New 2-CG
   NFREE  =      1    steps in history (QN), initial steepest desc. (CG)
   ISIF   =      2    stress and relaxation
   IWAVPR =     10    prediction:  0-non 1-charg 2-wave 3-comb
   ISYM   =      3    0-nonsym 1-usesym 2-fastsym
   LCORR  =      T    Harris-Foulkes like correction to forces

   POTIM  = 0.5000    time-step for ionic-motion
   TEIN   =    0.0    initial temperature
   TEBEG  =    0.0;   TEEND  =   0.0 temperature during run
   SMASS  =  -3.00    Nose mass-parameter (am)
   estimated Nose-frequenzy (Omega)   =  0.10E-29 period in steps =****** mass=  -0.380E-26a.u.
   SCALEE = 1.0000    scale energy and forces
   NPACO  =    256;   APACO  = 16.0  distance and # of slots for P.C.
   PSTRESS=    0.0 pullay stress

  Mass of Ions in am
   POMASS =  12.01 14.00 63.55 55.85
  Ionic Valenz
   ZVAL   =   4.00  5.00 11.00  8.00
  Atomic Wigner-Seitz radii
  virtual crystal weights
   VCA    =   1.00  1.00  1.00  1.00
   NELECT =     255.0000    total number of electrons
   NUPDOWN=      -1.0000    fix difference up-down

 DOS related values:
   EMIN   =  10.00;   EMAX   =-10.00  energy-range for DOS
   EFERMI =   0.00
   ISMEAR =     0;   SIGMA  =   0.10  broadening in eV -4-tet -1-fermi 0-gaus

 Electronic relaxation 2 (details)
   IALGO  =     53    algorithm
   LDIAG  =      T    sub-space diagonalisation (order eigenvalues)
   LSUBROT=      F    optimize rotation matrix (better conditioning)
   TURBO    =      0    0=normal 1=particle mesh
   IRESTART =      0    0=no restart 2=restart with 2 vectors
   NREBOOT  =      0    no. of reboots
   NMIN     =      0    reboot dimension
   EREF     =   0.00    reference energy to select bands
   IMIX   =      4    mixing-type and parameters
     AMIX     =   0.40;   BMIX     =  1.00
     AMIX_MAG =   1.60;   BMIX_MAG =  1.00
     AMIN     =   0.10
     WC   =   100.;   INIMIX=   1;  MIXPRE=   1;  MAXMIX= -45

 Intra band minimization:
[...]
   46        0.865   1.778   0.000   2.644
   47        0.866   1.775   0.000   2.641
   48        0.866   1.771   0.000   2.637
   49        0.867   1.767   0.000   2.633
   50        0.867   1.767   0.000   2.634
   51        0.865   1.764   0.000   2.629
   52        0.861   1.757   0.000   2.618
   53        0.865   1.766   0.000   2.631
   54        0.865   1.768   0.000   2.634
   55        1.239   2.650   0.000   3.889
   56        1.243   2.649   0.000   3.891
   57        1.233   2.678   0.000   3.911
   58        1.235   2.680   0.000   3.915
   59        0.374   0.231   9.387   9.992
   60        0.418   0.354   6.155   6.927
tot         52.342 106.106  15.542 173.991

 magnetization (x)

[...]

  FORCE on cell =-STRESS in cart. coord.  units (eV):
  Direction    XX          YY          ZZ          XY          YZ          ZX
  Alpha Z   108.20485   108.20485   108.20485
  Ewald   49167.17584 49401.56846-57512.49041   140.57947     7.73166     3.44636
  Hartree 49001.99420 49151.58659-47670.74537    73.79648    19.02366    11.55397
  E(xc)    -753.19471  -753.45146  -767.33237    -0.23551    -0.00068    -0.01749
  Local  ************************101965.73527  -204.11149   -28.64554   -16.48024
  n-local   -82.95267   -80.19632   -69.85075     2.35969    -0.24820    -0.13280
  augment    97.50247    99.03008   102.69072     1.47115    -0.00338     0.17187
  Kinetic  3755.14077  3742.08944  4241.12287   -13.60137     1.63332     1.33190
  Fock     -423.13959  -425.00777  -398.66536    -1.90779     0.21823    -0.01773
  Total     -45.74328   -44.48343    -1.33057    -1.64936    -0.29092    -0.14416
  in kB     -23.06945   -22.43407    -0.67104    -0.83181    -0.14672    -0.07270

 VOLUME and BASIS-vectors are now :
  energy-cutoff  :      500.00
  volume of cell :     3176.88
      direct lattice vectors                 reciprocal lattice vectors
    12.902700000  0.000000000  0.000000000     0.077503158  0.000767809  0.000146231
    -0.122429321 12.358093573  0.000000000     0.000000000  0.080918630  0.001523511
    -0.033875241 -0.375116053 19.923640236     0.000000000  0.000000000  0.050191631

  length of vectors
    12.902700000 12.358700000 19.927200000     0.077507099  0.080932971  0.050191631

 FORCES acting on ions:
    Electron-Ion                     Ewald-Force                    Non-Local-Force
   0.745E+01 -.454E+01 0.263E+02   -.774E+01 0.488E+01 -.264E+02   0.280E+00 -.297E+00 0.901E-01
   0.628E+01 0.112E+01 0.285E+02   -.621E+01 -.109E+01 -.285E+02   -.625E-01 -.531E-01 0.480E-01
   0.578E+01 -.223E+01 0.267E+02   -.593E+01 0.226E+01 -.266E+02   0.104E+00 -.378E-01 -.567E-01
   0.936E+01 0.511E+01 0.258E+02   -.954E+01 -.503E+01 -.258E+02   0.179E+00 -.143E+00 -.704E-01
   0.122E+02 0.168E+02 0.275E+02   -.122E+02 -.164E+02 -.275E+02   -.571E-01 -.341E+00 0.411E-01
   0.124E+02 0.120E+02 0.353E+02   -.123E+02 -.122E+02 -.354E+02   -.358E-01 0.298E+00 0.122E+00
   0.671E+01 0.121E+02 0.279E+02   -.658E+01 -.122E+02 -.278E+02   -.641E-01 0.700E-01 -.639E-01
   0.223E+02 0.355E+02 0.414E+02   -.222E+02 -.353E+02 -.419E+02   -.118E+00 -.309E+00 0.476E+00
   0.451E+02 0.559E+02 0.530E+02   -.463E+02 -.581E+02 -.539E+02   0.126E+01 0.243E+01 0.850E+00
   0.216E+02 0.259E+01 0.327E+02   -.219E+02 -.266E+01 -.326E+02   0.153E+00 0.517E-01 -.938E-01
   0.261E+02 0.164E+02 0.408E+02   -.261E+02 -.167E+02 -.409E+02   -.314E-01 0.274E+00 0.103E+00
   0.378E+02 -.458E+02 0.274E+02   -.393E+02 0.478E+02 -.277E+02   0.131E+01 -.197E+01 0.364E+00
   0.131E+02 -.724E+01 0.342E+02   -.131E+02 0.752E+01 -.342E+02   0.247E-01 -.157E+00 0.115E-01
   0.284E+02 -.135E+02 0.338E+02   -.282E+02 0.138E+02 -.338E+02   -.458E-01 -.270E+00 -.124E-01
   0.502E+02 -.142E+02 0.239E+02   -.539E+02 0.137E+02 -.247E+02   0.355E+01 0.592E+00 0.773E+00
   0.215E+02 -.201E+02 0.329E+02   -.220E+02 0.199E+02 -.330E+02   0.448E+00 0.623E-01 0.128E+00
   0.710E+01 -.707E+01 0.324E+02   -.715E+01 0.718E+01 -.324E+02   -.181E-01 -.816E-01 0.766E-01
   0.117E+02 -.121E+02 0.341E+02   -.121E+02 0.120E+02 -.341E+02   0.320E+00 -.461E-01 0.159E-01
   0.115E+02 -.187E+02 0.261E+02   -.118E+02 0.190E+02 -.259E+02   0.297E+00 -.260E+00 -.171E+00
   -.873E+01 -.687E+00 0.229E+02   0.895E+01 0.731E+00 -.228E+02   -.151E+00 -.379E-01 -.910E-01
   0.254E+01 0.118E+02 0.315E+02   -.280E+01 -.118E+02 -.316E+02   0.241E+00 0.193E-01 0.996E-01
   -.361E+01 -.697E+01 0.309E+02   0.382E+01 0.726E+01 -.311E+02   -.237E+00 -.294E+00 0.128E+00
   -.810E+01 0.700E+01 0.251E+02   0.835E+01 -.720E+01 -.251E+02   -.202E+00 0.141E+00 0.775E-01
   -.141E+02 0.226E+02 0.269E+02   0.141E+02 -.227E+02 -.268E+02   -.116E+00 0.157E+00 -.111E+00
   0.246E+02 0.678E+02 0.510E+02   -.260E+02 -.699E+02 -.518E+02   0.159E+01 0.236E+01 0.853E+00
   -.127E+01 0.285E+02 0.358E+02   0.109E+01 -.285E+02 -.359E+02   0.245E+00 0.545E-01 0.129E+00
   -.257E+02 0.191E+02 0.312E+02   0.260E+02 -.189E+02 -.312E+02   -.291E+00 -.205E+00 0.631E-01
   -.609E+02 0.110E+02 0.273E+02   0.635E+02 -.111E+02 -.277E+02   -.255E+01 0.480E-01 0.394E+00
   -.354E+02 0.342E+02 0.228E+02   0.369E+02 -.376E+02 -.235E+02   -.130E+01 0.324E+01 0.724E+00
   -.344E+02 -.535E+02 0.348E+02   0.361E+02 0.561E+02 -.361E+02   -.173E+01 -.280E+01 0.128E+01
   -.185E+02 -.282E+02 0.240E+02   0.186E+02 0.284E+02 -.249E+02   -.138E+00 -.179E+00 0.914E+00
   -.442E+00 -.228E+02 0.346E+02   0.406E+00 0.234E+02 -.347E+02   -.766E-02 -.491E+00 0.175E+00
   -.280E+02 -.565E+02 0.348E+02   0.295E+02 0.592E+02 -.361E+02   -.164E+01 -.293E+01 0.128E+01
   -.959E+01 -.109E+02 0.210E+02   0.979E+01 0.110E+02 -.211E+02   -.562E-01 0.152E-01 0.951E-01
   0.127E+01 -.254E+01 0.305E+02   -.121E+01 0.263E+01 -.305E+02   -.446E-01 -.360E-01 0.364E-01
   -.611E+01 0.394E+01 0.249E+02   0.619E+01 -.390E+01 -.248E+02   -.752E-01 -.423E-01 -.750E-01
   -.548E+01 0.579E+00 0.275E+02   0.549E+01 -.505E+00 -.275E+02   -.654E-02 -.458E-01 0.539E-01
   -.498E+00 0.370E+01 0.305E+02   0.534E+00 -.375E+01 -.305E+02   -.334E-01 -.737E-02 0.348E-01
   -.591E+00 0.534E+01 0.314E+02   0.531E+00 -.538E+01 -.314E+02   -.209E-01 0.602E-01 0.169E-01
   -.126E+02 0.117E+02 0.312E+02   0.129E+02 -.116E+02 -.311E+02   -.229E+00 0.473E-01 -.264E-01
   -.738E+01 0.773E+01 0.304E+02   0.747E+01 -.777E+01 -.305E+02   -.109E-01 0.280E-01 0.795E-01
   0.178E+01 0.710E+01 0.336E+02   -.174E+01 -.717E+01 -.337E+02   -.244E-01 0.936E-01 0.270E-01
   -.167E+01 0.644E+01 0.343E+02   0.171E+01 -.643E+01 -.343E+02   -.323E-01 -.311E-02 0.359E-01
   -.272E+02 0.891E+01 0.328E+02   0.271E+02 -.936E+01 -.327E+02   -.155E+00 0.367E+00 0.369E-01
   -.125E+02 0.555E+01 0.347E+02   0.127E+02 -.594E+01 -.348E+02   -.111E+00 0.257E+00 0.464E-01
   0.578E+01 0.287E+00 0.325E+02   -.576E+01 -.361E+00 -.325E+02   0.973E-01 -.106E-01 0.295E-01
   -.362E+01 -.175E+01 0.312E+02   0.374E+01 0.171E+01 -.313E+02   -.225E+00 0.127E+00 0.297E-01
   -.216E+02 -.157E+02 0.370E+02   0.221E+02 0.160E+02 -.371E+02   -.455E+00 -.242E+00 0.126E+00
   -.177E+02 -.413E+01 0.287E+02   0.182E+02 0.409E+01 -.285E+02   -.287E+00 0.951E-01 -.163E+00
   0.342E+01 -.705E+01 0.335E+02   -.341E+01 0.704E+01 -.335E+02   -.326E-01 0.503E-02 0.336E-01
   -.438E+00 -.671E+01 0.340E+02   0.501E+00 0.683E+01 -.340E+02   -.914E-01 -.117E+00 0.309E-01
   -.510E+01 -.922E+01 0.253E+02   0.500E+01 0.944E+01 -.252E+02   -.363E-01 -.133E+00 -.783E-01
   -.912E+01 -.112E+02 0.348E+02   0.926E+01 0.115E+02 -.349E+02   -.104E+00 -.390E+00 0.180E+00
   0.146E+01 -.466E+01 0.323E+02   -.137E+01 0.475E+01 -.324E+02   -.130E-01 -.908E-01 0.297E-01
   -.391E+00 -.236E+02 0.625E+02   0.281E+02 0.247E+02 -.609E+02   -.261E+02 -.123E+01 -.156E+01
   -.194E+02 -.127E+02 0.633E+02   0.611E+01 0.373E+02 -.620E+02   0.124E+02 -.233E+02 -.130E+01
   -.645E+00 0.846E+01 0.745E+01   -.218E+02 -.103E+02 -.548E+01   0.213E+02 0.194E+01 -.204E+01
   0.674E+01 0.527E+01 0.923E+01   0.325E+01 -.257E+02 -.735E+01   -.937E+01 0.195E+02 -.197E+01
   0.799E+02 0.136E+03 -.108E+04   -.764E+02 -.129E+03 0.108E+04   -.369E+01 -.675E+01 0.249E+01
   -.791E+02 -.139E+03 -.767E+03   0.769E+02 0.135E+03 0.761E+03   0.229E+01 0.449E+01 0.643E+01
   0.411E+01 0.689E+01 -.116E+02   -.853E-13 0.369E-12 -.102E-11   -.388E+01 -.647E+01 0.112E+02

 POSITION                                       TOTAL-FORCE (eV/Angst)
      2.83232     -0.15006      9.87606         0.007256      0.034057      0.005391
      0.68632      1.07521      9.81692         0.008364     -0.029187      0.007941
      1.40119     -0.16001      9.83288        -0.038658     -0.002133      0.002165
      3.55101      1.08971      9.89771         0.008230     -0.077234     -0.000643
      2.84576      2.34905      9.91828        -0.057969      0.055520      0.019610
      0.66471      3.54072      9.84307        -0.003575      0.066604      0.028331
      1.40410      2.31781      9.85584         0.054309     -0.051031      0.005494
      3.56230      3.59996     10.02071        -0.074601     -0.118646      0.037476
      2.78394      4.84547     10.05296         0.183508      0.397931      0.070224
      0.61654      6.01317      9.89240        -0.114669     -0.017374      0.005898
      1.35611      4.78775      9.90807        -0.021322     -0.053063      0.028435
      2.72299      7.24003     10.11407        -0.051008     -0.106812      0.019623
      0.58122      8.48911      9.86291         0.025511      0.117149      0.011708
      1.30984      7.26017      9.93927         0.150489      0.027434      0.037245
      3.42941      8.51253     10.13047         0.010747      0.113351      0.043141
      2.70678      9.72824      9.95168        -0.011527     -0.136083      0.041183
      0.56524     10.95979      9.81611        -0.071055      0.030261      0.015406
      1.28196      9.72643      9.86260        -0.055175     -0.077851      0.010756
      3.42358     10.96748      9.92970         0.073213      0.012936      0.008856
      7.00952     12.14519      9.91166         0.064070      0.006508      0.000363
      4.98152      1.06134      9.90622         0.002926     -0.005527      0.017866
      5.70092     -0.18118      9.91059        -0.046049     -0.020556      0.024416
      7.84990      1.02567      9.88463         0.042690     -0.048073     -0.003745
      7.13385      2.26610      9.92991        -0.063680      0.041648      0.001218
      5.02588      3.55054     10.06979         0.237900      0.383624      0.072667
      5.70526      2.28830      9.95055         0.072056     -0.026478      0.016412
      7.84985      3.50196      9.95682         0.006807      0.034203      0.020320
      7.11184      4.71505     10.12200        -0.156225     -0.044631      0.036007
      7.83951      5.97427     10.13328         0.194026      0.048000      0.028628
      7.78766      8.39810     10.09961        -0.115321     -0.345900      0.004596
      6.99864      9.63635     10.06556        -0.010693     -0.017637      0.076968
      4.85359     10.95146      9.95813        -0.043680      0.086888      0.008114
      5.53580      9.69848     10.10795        -0.219698     -0.307709      0.030579
      7.71708     10.88987      9.94346         0.141136      0.125934      0.037345
     11.43324     -0.18273      9.79359         0.012320      0.052380      0.025883
      9.27993      1.03497      9.84291         0.000808     -0.009111      0.004402
      9.87397     12.15880      9.82483        -0.002858      0.027805      0.008656
     12.15172      1.05763      9.79261        -0.003150     -0.058334      0.021949
     11.42497      2.28621      9.79934        -0.080899      0.018851      0.016037
      9.27487      3.50470      9.87317         0.046796      0.075498      0.011350
      9.99412      2.27283      9.82523         0.079526     -0.008429      0.015027
     12.13439      3.52656      9.81101         0.011496      0.022333      0.015099
     11.40271      4.75559      9.82751         0.003188      0.005445      0.018259
      9.24739      5.96814      9.94970        -0.233696     -0.059165      0.056362
      9.97715      4.74048      9.86629         0.014880     -0.122191      0.008237
     12.09681      5.99988      9.84523         0.124585     -0.089324      0.012438
     11.36378      7.22980      9.85010        -0.120738      0.093062      0.015519
      9.20802      8.44660      9.92782         0.043513      0.085950      0.008058
      9.94249      7.21669      9.90808         0.110793      0.052489     -0.001161
     12.05799      8.47521      9.82918        -0.029504     -0.012571      0.013377
     11.32842      9.70558      9.81216        -0.031909     -0.005780      0.018324
      9.15604     10.91633      9.87025        -0.135293      0.075299      0.012988
      9.89680      9.69332      9.85162         0.025462     -0.111039      0.039641
     12.03708     10.94634      9.79599         0.078163     -0.006448      0.017268
      3.40378      6.05642     10.24662        -0.623877     -0.212094     -0.105782
      5.75086      4.70169     10.25162         0.221056     -0.702503     -0.118339
      7.18483      7.17440     10.33026         0.670246      0.250624     -0.240100
      4.79038      8.55617     10.32773        -0.197817      0.756679     -0.263251
      4.71974      5.63097     11.78282        -0.163997     -0.232928     -0.212062
      5.84492      7.61746     11.67118         0.052572      0.017378     -0.168168
    total drift:                                0.004799      0.051155     -0.003404

  FREE ENERGIE OF THE ION-ELECTRON SYSTEM (eV)
  free  energy   TOTEN  =      -622.36609354 eV

  energy  without entropy=     -622.36609344  energy(sigma->0) =     -622.36609349

 stress matrix after NEB project (eV)
    -45.74328     -1.64935     -0.14416
     -1.64936    -44.48343     -0.29919
     -0.13859     -0.29092     -1.33057
  FORCES: max atom, RMS     0.825225    0.246401
  FORCE total and by dimension    1.908614    0.756679
  Stress total and by dimension   63.864302   45.743284
 writing wavefunctions

 total charge

[...]

 magnetization (x)

# of ion       s       p       d       tot
    1        0.000   0.005   0.000   0.005
    2        0.000   0.004   0.000   0.004
    3       -0.000  -0.006   0.000  -0.007
    4       -0.000  -0.003   0.000  -0.004
    5        0.000   0.005   0.000   0.005
    6        0.000   0.005   0.000   0.006
    7       -0.001  -0.008   0.000  -0.008
    8       -0.000  -0.006   0.000  -0.006
    9        0.000   0.003   0.000   0.003
   10        0.000   0.005   0.000   0.005
   11       -0.000  -0.006   0.000  -0.006
   12        0.001   0.009   0.000   0.010
   13        0.000   0.005   0.000   0.006
   14       -0.000  -0.005   0.000  -0.005
   15       -0.000  -0.005   0.000  -0.005
   16        0.001   0.005   0.000   0.006
   17        0.000   0.005   0.000   0.006
   18       -0.000  -0.005   0.000  -0.006
   19       -0.000  -0.005   0.000  -0.006
   20        0.001   0.006   0.000   0.006
   21        0.000   0.004   0.000   0.004
   22       -0.000  -0.005   0.000  -0.005
   23       -0.000  -0.005   0.000  -0.005
   24        0.000   0.004   0.000   0.004
   25        0.000   0.002   0.000   0.002
   26       -0.000  -0.005   0.000  -0.005
   27       -0.000  -0.004   0.000  -0.004
   28        0.001   0.008   0.000   0.009
   29        0.000  -0.004   0.000  -0.004
   30        0.000  -0.006   0.000  -0.006
   31        0.002   0.015   0.000   0.017
   32        0.001   0.006   0.000   0.007
   33        0.000  -0.005   0.000  -0.005
   34       -0.001  -0.010   0.000  -0.011
   35        0.000   0.005   0.000   0.005
   36        0.001   0.006   0.000   0.007
   37       -0.000  -0.005   0.000  -0.005
   38       -0.000  -0.005   0.000  -0.005
   39        0.000   0.005   0.000   0.005
   40        0.000   0.005   0.000   0.006
   41       -0.000  -0.006   0.000  -0.006
   42       -0.000  -0.004   0.000  -0.005
   43        0.000   0.004   0.000   0.005
   44        0.001   0.005   0.000   0.006
   45       -0.000  -0.004   0.000  -0.005
   46       -0.001  -0.007   0.000  -0.007
   47        0.001   0.006   0.000   0.007
   48        0.001   0.007   0.000   0.008
   49       -0.001  -0.006   0.000  -0.007
   50       -0.000  -0.005   0.000  -0.005
   51        0.000   0.004   0.000   0.005
   52        0.001   0.008   0.000   0.009
   53       -0.000  -0.007   0.000  -0.007
   54       -0.000  -0.006   0.000  -0.007
   55       -0.004  -0.020   0.000  -0.023
   56       -0.003  -0.010   0.000  -0.013
   57        0.005   0.031   0.000   0.036
   58        0.004   0.027   0.000   0.031
   59       -0.088  -0.049   0.038  -0.099
   60       -0.035   0.007   3.340   3.311
tot         -0.114  -0.010   3.379   3.254