 vasp.5.4.4.18Apr17-6-g9f103f2a35 (build Feb 25 2019 10:51:38) complex

 executed on             LinuxIFC date 2021.07.23  15:56:32

 INCAR:
 POTCAR:    PAW_PBE C 08Apr2002
 POTCAR:    PAW_PBE N 08Apr2002
 POTCAR:    PAW_PBE Fe 06Sep2000
 POTCAR:    PAW_PBE V 08Apr2002

 POTCAR:    PAW_PBE C 08Apr2002
   VRHFIN =C: s2p2

   TITEL  = PAW_PBE C 08Apr2002
   POMASS =   12.011; ZVAL   =    4.000    mass and valenz
   ENMAX  =  400.000; ENMIN  =  300.000 eV

 POTCAR:    PAW_PBE N 08Apr2002
   VRHFIN =N: s2p3

[...]

 POTCAR:    PAW_PBE Fe 06Sep2000
   VRHFIN =Fe:  d7 s1

   TITEL  = PAW_PBE Fe 06Sep2000
   POMASS =   55.847; ZVAL   =    8.000    mass and valenz
   ENMAX  =  267.882; ENMIN  =  200.911 eV

 POTCAR:    PAW_PBE V 08Apr2002
   VRHFIN =V: p6 d4 s1

   TITEL  = PAW_PBE V 08Apr2002
   POMASS =   50.941; ZVAL   =    5.000    mass and valenz
   ENMAX  =  192.543; ENMIN  =  144.408 eV

  PAW_PBE C 08Apr2002                   :
  PAW_PBE N 08Apr2002                   :
  PAW_PBE Fe 06Sep2000                  :
  PAW_PBE V 08Apr2002                   :

 POSCAR:  C  N Fe  V
  positions in cartesian coordinates
 exchange correlation table for  LEXCH =        8
   RHO(1)=    0.500       N(1)  =     2000
   RHO(2)=  100.500       N(2)  =     4000

 VTST: version 3.2, (02/03/18)

 CHAIN: initializing optimizer

 OPT: Using VASP Conjugate-Gradient optimizer
 CHAIN: Read ICHAIN            0

 POSCAR:  C  N Fe  V
  positions in cartesian coordinates

 ion  position               nearest neighbor table
   1  0.221  0.998  0.499-   3 1.41   4 1.42  17 1.43
   2  0.054  0.099  0.499-  34 1.41   7 1.43   3 1.44
   3  0.110  0.999  0.499-   1 1.41  15 1.43   2 1.44
   4  0.276  0.096  0.499-  19 1.41   5 1.42   1 1.42
   5  0.220  0.194  0.500-   7 1.41   4 1.42   8 1.42
   6  0.055  0.299  0.500-  38 1.43   7 1.44  10 1.45
   7  0.109  0.198  0.500-   5 1.41   2 1.43   6 1.44
   8  0.276  0.292  0.503-  53 1.38  51 1.42   5 1.42
   9  0.063  0.499  0.500-  10 1.45  42 1.46  12 1.47
  10  0.116  0.396  0.501-  53 1.37   9 1.45   6 1.45
  11  0.059  0.699  0.499-  46 1.42  16 1.44  12 1.45
  12  0.119  0.600  0.499-  54 1.38  11 1.45   9 1.47
  13  0.279  0.702  0.498-  54 1.38  14 1.42  25 1.43
  14  0.223  0.801  0.498-  16 1.42  13 1.42  17 1.42
  15  0.056  0.899  0.499-  50 1.41  16 1.43   3 1.43
  16  0.112  0.800  0.499-  14 1.42  15 1.43  11 1.44
  17  0.278  0.900  0.498-  28 1.41  14 1.42   1 1.43
  18  0.556  0.999  0.497-  20 1.41  30 1.42  21 1.43
  19  0.388  0.097  0.500-   4 1.41  23 1.42  20 1.43
  20  0.444  0.998  0.498-  18 1.41  28 1.43  19 1.43
  21  0.610  0.098  0.499-  32 1.42  22 1.42  18 1.43
  22  0.555  0.196  0.503-  52 1.42  21 1.42  23 1.44
  23  0.441  0.195  0.503-  51 1.42  19 1.42  22 1.44
  24  0.555  0.607  0.497-  55 1.37  56 1.38  26 1.42
  25  0.391  0.703  0.496-  56 1.40  29 1.42  13 1.43
  26  0.612  0.704  0.496-  44 1.42  27 1.42  24 1.42
  27  0.557  0.802  0.495-  26 1.42  29 1.42  30 1.42
  28  0.389  0.900  0.497-  17 1.41  29 1.43  20 1.43
  29  0.445  0.801  0.496-  25 1.42  27 1.42  28 1.43
  30  0.612  0.900  0.496-  48 1.42  27 1.42  18 1.42
  31  0.889  1.000  0.499-  33 1.41  34 1.44  50 1.44
  32  0.722  0.100  0.499-  21 1.42  33 1.44  37 1.44
  33  0.778  1.000  0.498-  31 1.41  48 1.44  32 1.44
  34  0.942  0.100  0.499-   2 1.41  31 1.44  35 1.44
  35  0.887  0.201  0.500-  37 1.42  34 1.44  38 1.45
  36  0.716  0.301  0.504-  52 1.42  37 1.46  41 1.47
  37  0.775  0.201  0.501-  35 1.42  32 1.44  36 1.46
  38  0.943  0.301  0.501-   6 1.43  35 1.45  39 1.45
  39  0.887  0.402  0.501-  38 1.45  41 1.45  42 1.46
  40  0.718  0.504  0.502-  55 1.41  45 1.44  41 1.45
  41  0.773  0.403  0.503-  40 1.45  39 1.45  36 1.47
  42  0.948  0.499  0.500-  43 1.44  39 1.46   9 1.46
  43  0.891  0.599  0.499-  45 1.44  42 1.44  46 1.44
  44  0.724  0.701  0.498-  26 1.42  49 1.43  45 1.44
  45  0.778  0.600  0.499-  40 1.44  43 1.44  44 1.44
  46  0.947  0.699  0.499-  11 1.42  43 1.44  47 1.44
  47  0.891  0.799  0.498-  49 1.42  50 1.43  46 1.44
  48  0.723  0.900  0.497-  30 1.42  49 1.43  33 1.44
  49  0.779  0.800  0.498-  47 1.42  44 1.43  48 1.43
  50  0.945  0.899  0.499-  15 1.41  47 1.43  31 1.44
  51  0.388  0.295  0.507-   8 1.42  23 1.42  58 2.11  57 2.48
  52  0.605  0.296  0.509-  22 1.42  36 1.42  58 2.06
  53  0.224  0.389  0.502-  10 1.37   8 1.38  57 1.99
  54  0.228  0.605  0.498-  12 1.38  13 1.38  57 2.11
  55  0.607  0.511  0.503-  24 1.37  40 1.41  58 2.03
  56  0.447  0.606  0.494-  24 1.38  25 1.40  57 1.98
  57  0.346  0.487  0.494-  56 1.98  53 1.99  54 2.11  58 2.33  51 2.48
  58  0.497  0.409  0.539-  55 2.03  52 2.06  51 2.11  57 2.33

  LATTYP: Found a triclinic cell.
 ALAT       =    34.4351727823
 B/A-ratio  =     0.3649408144
 C/A-ratio  =     0.5786002622
 COS(alpha) =     0.0001658063
 COS(beta)  =     0.5790441199
 COS(gamma) =     0.7273807275

  Lattice vectors:

 A1 = (  12.5287256046, -25.1364024894, -19.9241920579)
 A2 = (  -0.0885655431, -12.5664879097,   0.0000000000)
 A3 = (   0.0174566909,  -0.0034266700, -19.9241920579)

Analysis of symmetry for initial positions (statically):
 Subroutine PRICEL returns:
 Original cell was already a primitive cell.

 Routine SETGRP: Setting up the symmetry group for a
 triclinic supercell.

 Subroutine GETGRP returns: Found  1 space group operations
 (whereof  1 operations were pure point group operations)
 out of a pool of  2 trial point group operations.

The static configuration has the point symmetry C_1 .

Analysis of symmetry for dynamics (positions and initial velocities):
 Subroutine PRICEL returns:
 Original cell was already a primitive cell.

[...]

The dynamic configuration has the point symmetry C_1 .

Analysis of structural, dynamic, and magnetic symmetry:
 Subroutine PRICEL returns:
 Original cell was already a primitive cell.

 Routine SETGRP: Setting up the symmetry group for a
 triclinic supercell.

 Subroutine GETGRP returns: Found  1 space group operations
 (whereof  1 operations were pure point group operations)
 out of a pool of  2 trial point group operations.

The magnetic configuration has the point symmetry C_1 .

 Subroutine INISYM returns: Found  1 space group operations
 (whereof  1 operations are pure point group operations),
 and found     1 'primitive' translations

 KPOINTS: KPOINTS created by Atomic Simulation Env

Automatic generation of k-mesh.
Space group operators:
 irot       det(A)        alpha          n_x          n_y          n_z        tau_x        tau_y        tau_z
    1     1.000000     0.000000     1.000000     0.000000     0.000000     0.000000     0.000000     0.000000

 Subroutine IBZKPT returns following result:

 Found      2 irreducible k-points:

 Following reciprocal coordinates:
            Coordinates               Weight
  0.250000  0.250000 -0.000000      2.000000
 -0.250000  0.250000  0.000000      2.000000

 Following cartesian coordinates:
            Coordinates               Weight
  0.019703  0.019755  0.000014      2.000000
 -0.019703  0.020033 -0.000021      2.000000

 Subroutine IBZKPT_HF returns following result:

 Found      4 k-points in 1st BZ
 the following      4 k-points will be used (e.g. in the exchange kernel)
 Following reciprocal coordinates:   # in IRBZ
  0.250000  0.250000 -0.000000    0.25000000   1 t-inv F
 -0.250000  0.250000  0.000000    0.25000000   2 t-inv F
 -0.250000 -0.250000  0.000000    0.25000000   1 t-inv T
  0.250000 -0.250000 -0.000000    0.25000000   2 t-inv T

 SYSTEM =  unknown system
 POSCAR =   C  N Fe  V

 Startparameter for this run:
   NWRITE =      2    write-flag & timer
   PREC   = accura    normal or accurate (medium, high low for compatibility)
   ISTART =      1    job   : 0-new  1-cont  2-samecut
   ICHARG =      0    charge: 1-file 2-atom 10-const
   ISPIN  =      2    spin polarized calculation?
   LNONCOLLINEAR =      F non collinear calculations
   LSORBIT =      F    spin-orbit coupling
   INIWAV =      1    electr: 0-lowe 1-rand  2-diag
   LASPH  =      T    aspherical Exc in radial PAW
   METAGGA=      F    non-selfconsistent MetaGGA calc.

 Electronic Relaxation 1
   ENCUT  =  500.0 eV  36.75 Ry    6.06 a.u.  23.13 22.91 36.33*2*pi/ulx,y,z
   ENINI  =  500.0     initial cutoff
   ENAUG  =  644.9 eV  augmentation charge cutoff
   NELM   =    250;   NELMIN=  2; NELMDL=  0     # of ELM steps
   EDIFF  = 0.1E-03   stopping-criterion for ELM
   LREAL  =      F    real-space projection
   NLSPLINE    = F    spline interpolate recip. space projectors
   LCOMPAT=      F    compatible to vasp.4.4
   GGA_COMPAT  = T    GGA compatible to vasp.4.4-vasp.4.6
   LMAXPAW     = -100 max onsite density
   LMAXMIX     =    2 max onsite mixed and CHGCAR
   VOSKOWN=      0    Vosko Wilk Nusair interpolation
   ROPT   =    0.00000   0.00000   0.00000   0.00000
 Ionic relaxation
   EDIFFG = -.3E-01   stopping-criterion for IOM
   NSW    =      0    number of steps for IOM
   NBLOCK =      1;   KBLOCK =      1    inner block; outer block
   IBRION =     -1    ionic relax: 0-MD 1-quasi-New 2-CG
   NFREE  =      1    steps in history (QN), initial steepest desc. (CG)
   ISIF   =      2    stress and relaxation
   IWAVPR =     10    prediction:  0-non 1-charg 2-wave 3-comb
   ISYM   =      3    0-nonsym 1-usesym 2-fastsym
   LCORR  =      T    Harris-Foulkes like correction to forces

   POTIM  = 0.5000    time-step for ionic-motion
   TEIN   =    0.0    initial temperature
   TEBEG  =    0.0;   TEEND  =   0.0 temperature during run
   SMASS  =  -3.00    Nose mass-parameter (am)
   estimated Nose-frequenzy (Omega)   =  0.10E-29 period in steps =****** mass=  -0.368E-26a.u.
   SCALEE = 1.0000    scale energy and forces
   NPACO  =    256;   APACO  = 16.0  distance and # of slots for P.C.
   PSTRESS=    0.0 pullay stress

  Mass of Ions in am
   POMASS =  12.01 14.00 55.85 50.94
  Ionic Valenz
   ZVAL   =   4.00  5.00  8.00  5.00
  Atomic Wigner-Seitz radii
  virtual crystal weights
   VCA    =   1.00  1.00  1.00  1.00
   NELECT =     241.0000    total number of electrons
   NUPDOWN=      -1.0000    fix difference up-down

 DOS related values:
   EMIN   =  10.00;   EMAX   =-10.00  energy-range for DOS
   EFERMI =   0.00
   ISMEAR =     0;   SIGMA  =   0.10  broadening in eV -4-tet -1-fermi 0-gaus

 Electronic relaxation 2 (details)
   IALGO  =     53    algorithm
   LDIAG  =      T    sub-space diagonalisation (order eigenvalues)
   LSUBROT=      F    optimize rotation matrix (better conditioning)
   TURBO    =      0    0=normal 1=particle mesh
   IRESTART =      0    0=no restart 2=restart with 2 vectors
   NREBOOT  =      0    no. of reboots
   NMIN     =      0    reboot dimension
   EREF     =   0.00    reference energy to select bands
   IMIX   =      4    mixing-type and parameters
     AMIX     =   0.40;   BMIX     =  1.00
     AMIX_MAG =   1.60;   BMIX_MAG =  1.00
     AMIN     =   0.10
     WC   =   100.;   INIMIX=   1;  MIXPRE=   1;  MAXMIX= -45

 Intra band minimization:
   WEIMIN = 0.0000     energy-eigenvalue tresh-hold
   EBREAK =  0.16E-06  absolut break condition
   DEPER  =   0.30     relativ break condition

   TIME   =   0.20     timestep for ELM

[...]
   33        0.867   1.768   0.000   2.635
   34        0.865   1.759   0.000   2.624
   35        0.861   1.751   0.000   2.612
   36        0.856   1.721   0.000   2.577
   37        0.862   1.741   0.000   2.603
   38        0.860   1.741   0.000   2.601
   39        0.853   1.724   0.000   2.577
   40        0.847   1.703   0.000   2.550
   41        0.852   1.716   0.000   2.567
   42        0.854   1.721   0.000   2.575
   43        0.858   1.753   0.000   2.611
   44        0.867   1.763   0.000   2.630
   45        0.861   1.755   0.000   2.617
   46        0.862   1.749   0.000   2.611
   47        0.863   1.765   0.000   2.628
   48        0.866   1.764   0.000   2.630
   49        0.866   1.770   0.000   2.636
   50        0.866   1.764   0.000   2.630
   51        0.868   1.699   0.000   2.568
   52        0.880   1.673   0.000   2.553
   53        1.237   2.688   0.000   3.925
   54        1.234   2.663   0.000   3.897
   55        1.230   2.676   0.000   3.906
   56        1.221   2.680   0.000   3.901
   57        0.417   0.449   6.084   6.950
   58        0.498   0.553   3.563   4.614
tot         50.801 103.022   9.646 163.470

 magnetization (x)

[...]

  FORCE on cell =-STRESS in cart. coord.  units (eV):
  Direction    XX          YY          ZZ          XY          YZ          ZX
  Alpha Z    98.80753    98.80753    98.80753
  Ewald   46361.56572 46103.42450-54437.44398   -12.55535    10.61482     2.66685
  Hartree 45614.45625 45525.58736-45052.86809     3.55371    -0.52728     2.69660
  E(xc)    -699.19423  -699.34439  -712.82992     0.21628    -0.00445    -0.27914
  Local  -94544.28318-94232.03628 96431.20253     1.45088   -10.52288    -6.39347
  n-local  -157.99119  -159.80236  -152.28644    -0.94965    -0.27830     0.68510
  augment    35.47082    38.19303    40.65387    -1.13876     0.00456     1.04703
  Kinetic  3561.95202  3576.91297  4062.52685     8.91646     0.28141     1.67002
  Fock     -300.83972  -303.03785  -277.87548     1.81651    -0.13212    -0.94902
  Total     -30.05599   -51.29549    -0.11314     1.31008    -0.56423     1.14398
  in kB     -15.15794   -25.86951    -0.05706     0.66070    -0.28456     0.57694

 VOLUME and BASIS-vectors are now :
  energy-cutoff  :      500.00
  volume of cell :     3176.89
      direct lattice vectors                 reciprocal lattice vectors
    12.688400000  0.000000000  0.000000000     0.078812143 -0.000555449  0.000069147
     0.088565543 12.566487910  0.000000000     0.000000000  0.079576729 -0.000013686
    -0.017456691  0.003426670 19.924192058     0.000000000  0.000000000  0.050190241

  length of vectors
    12.688400000 12.566800000 19.924200000     0.078814131  0.079576730  0.050190241

 FORCES acting on ions:
    Electron-Ion                     Ewald-Force                    Non-Local-Force
   -.570E+00 -.149E+01 0.402E+01   0.436E+00 0.153E+01 -.404E+01   0.861E-02 -.539E-01 0.311E-01
   0.139E+01 0.907E-01 0.234E+01   -.155E+01 -.112E+00 -.235E+01   0.118E+00 0.630E-01 0.126E-01
   0.107E+02 -.267E+01 0.138E+01   -.106E+02 0.276E+01 -.139E+01   0.481E-01 -.887E-01 -.200E-02
   0.239E+00 -.112E+01 0.416E+01   0.143E+00 0.118E+01 -.412E+01   -.332E+00 0.116E-01 -.328E-01
   -.171E+01 0.509E+01 0.236E+01   0.185E+01 -.529E+01 -.245E+01   -.162E+00 0.170E+00 0.825E-01
   0.106E+02 -.453E+01 -.226E+00   -.112E+02 0.451E+01 0.234E+00   0.474E+00 -.164E-01 0.652E-03
   0.135E+02 -.130E+01 0.254E+01   -.136E+02 0.119E+01 -.259E+01   0.131E+00 0.553E-01 0.548E-01
   -.238E+02 0.234E+02 -.113E+02   0.272E+02 -.269E+02 0.116E+02   -.316E+01 0.325E+01 -.286E+00
   0.680E+01 -.124E+01 0.181E+01   -.691E+01 0.125E+01 -.182E+01   0.127E+00 0.124E-01 0.198E-01
   0.403E+02 -.123E+02 -.193E+01   -.437E+02 0.128E+02 0.189E+01   0.353E+01 -.595E+00 0.514E-01
   0.833E+01 0.596E+01 0.191E+01   -.874E+01 -.602E+01 -.192E+01   0.296E+00 0.110E+00 0.252E-01
   0.392E+02 0.171E+02 0.179E+01   -.425E+02 -.177E+02 -.176E+01   0.331E+01 0.495E+00 -.985E-02
   -.516E+01 -.232E+02 0.470E+01   0.623E+01 0.260E+02 -.471E+01   -.975E+00 -.267E+01 -.591E-02
   0.302E+01 -.886E+01 0.171E+01   -.287E+01 0.936E+01 -.173E+01   -.994E-01 -.461E+00 0.631E-02
   -.204E+00 -.117E+01 -.431E+00   0.140E+00 0.132E+01 0.428E+00   0.325E-01 -.185E+00 -.909E-02
   0.133E+02 -.190E+01 -.374E+00   -.135E+02 0.209E+01 0.370E+00   0.236E+00 -.148E+00 -.116E-01
   0.529E+01 -.475E+01 0.412E+01   -.514E+01 0.500E+01 -.412E+01   -.116E+00 -.281E+00 0.916E-03
   -.598E+01 -.799E+01 0.117E+02   0.601E+01 0.841E+01 -.117E+02   -.882E-01 -.421E+00 0.360E-01
   -.791E+01 -.632E+01 0.571E+01   0.826E+01 0.685E+01 -.579E+01   -.382E+00 -.479E+00 0.740E-01
   -.711E+00 -.605E+01 0.799E+01   0.910E+00 0.635E+01 -.796E+01   -.101E+00 -.269E+00 -.360E-01
   -.546E+00 -.736E+01 0.931E+01   0.229E+00 0.809E+01 -.948E+01   0.295E+00 -.644E+00 0.155E+00
   -.943E+00 -.215E+02 -.415E+01   0.180E+01 0.230E+02 0.418E+01   -.552E+00 -.140E+01 -.307E-01
   -.108E+02 -.181E+02 0.122E+00   0.109E+02 0.193E+02 -.409E+00   -.790E-01 -.104E+01 0.394E+00
   -.157E+02 -.373E+01 0.236E+02   0.183E+02 0.668E+01 -.240E+02   -.236E+01 -.326E+01 0.444E+00
   0.846E+01 -.192E+02 0.140E+02   -.106E+02 0.227E+02 -.139E+02   0.192E+01 -.324E+01 -.421E-01
   -.111E+02 -.420E+01 0.191E+02   0.119E+02 0.540E+01 -.192E+02   -.645E+00 -.997E+00 0.970E-01
   -.681E+01 -.797E+01 0.184E+02   0.685E+01 0.863E+01 -.185E+02   0.179E-01 -.639E+00 0.149E+00
   -.392E+01 -.622E+01 0.759E+01   0.373E+01 0.665E+01 -.760E+01   0.138E+00 -.444E+00 0.497E-05
   -.490E+00 -.108E+02 0.120E+02   0.200E+00 0.115E+02 -.120E+02   0.175E+00 -.651E+00 -.406E-01
   -.369E+01 -.537E+01 0.137E+02   0.366E+01 0.590E+01 -.137E+02   0.140E-01 -.532E+00 -.142E-02
   -.614E+01 -.231E+01 0.260E+01   0.597E+01 0.242E+01 -.260E+01   0.457E-01 -.975E-01 -.874E-02
   -.757E+01 -.896E+01 0.592E+01   0.738E+01 0.945E+01 -.583E+01   0.138E+00 -.437E+00 -.773E-01
   0.542E+01 -.473E+01 0.629E+01   -.537E+01 0.511E+01 -.629E+01   0.634E-01 -.346E+00 0.812E-02
   0.106E+02 -.482E+01 0.294E+01   -.107E+02 0.507E+01 -.296E+01   0.133E+00 -.205E+00 0.267E-01
   0.754E+00 -.714E+01 0.324E+01   -.113E+01 0.723E+01 -.328E+01   0.342E+00 -.137E+00 0.459E-01
   0.463E+01 -.174E+02 -.110E+02   -.646E+01 0.171E+02 0.110E+02   0.159E+01 -.505E-02 -.758E-02
   0.759E+01 -.126E+02 0.308E+01   -.805E+01 0.134E+02 -.317E+01   0.456E+00 -.720E+00 0.756E-01
   0.130E+02 -.482E+01 -.446E+00   -.133E+02 0.499E+01 0.476E+00   0.378E+00 -.207E+00 -.341E-01
   0.596E+01 0.214E+00 -.130E+01   -.640E+01 0.611E-01 0.131E+01   0.316E+00 -.184E+00 0.103E-01
   -.162E+02 0.281E+02 -.532E+00   0.204E+02 -.288E+02 0.250E+00   -.400E+01 0.832E+00 0.267E+00
   0.115E+02 0.113E+02 -.871E+01   -.118E+02 -.121E+02 0.886E+01   0.425E+00 0.959E+00 -.134E+00
   -.328E+00 0.728E+01 0.233E+01   0.408E+00 -.740E+01 -.234E+01   -.179E+00 0.174E+00 0.184E-01
   -.189E+01 0.546E+01 0.431E+01   0.215E+01 -.594E+01 -.431E+01   -.251E+00 0.384E+00 0.109E-01
   -.144E+02 0.226E+01 0.793E+01   0.150E+02 -.227E+01 -.782E+01   -.692E+00 0.352E-01 -.111E+00
   -.959E+01 0.701E+01 0.555E+01   0.102E+02 -.757E+01 -.553E+01   -.525E+00 0.364E+00 -.147E-01
   0.668E+01 0.476E+01 0.288E+01   -.684E+01 -.502E+01 -.290E+01   0.262E+00 0.255E+00 0.230E-01
   -.493E+01 0.384E+01 0.169E+01   0.505E+01 -.386E+01 -.167E+01   -.117E+00 0.574E-01 -.266E-01
   -.856E+01 -.353E+01 0.892E+01   0.860E+01 0.362E+01 -.892E+01   -.525E-01 -.144E+00 0.722E-02
   -.110E+01 -.435E+00 0.615E+01   0.135E+01 0.701E+00 -.617E+01   -.246E+00 -.214E+00 0.967E-02
   0.838E+01 -.252E+01 0.623E+00   -.836E+01 0.250E+01 -.638E+00   0.251E-01 -.405E-01 0.776E-03
   -.555E+02 -.517E+02 -.225E+02   0.596E+02 0.581E+02 0.232E+02   -.471E+01 -.634E+01 -.862E+00
   0.294E+02 -.629E+02 -.321E+02   -.344E+02 0.706E+02 0.331E+02   0.509E+01 -.773E+01 -.941E+00
   -.107E+02 -.448E+02 -.166E+02   0.217E+02 0.622E+02 0.173E+02   -.108E+02 -.164E+02 -.644E+00
   -.666E+01 0.571E+02 0.242E+00   0.185E+02 -.773E+02 0.759E-01   -.114E+02 0.190E+02 -.359E+00
   0.191E+02 0.101E+03 -.808E+01   -.283E+02 -.121E+03 0.849E+01   0.861E+01 0.186E+02 -.471E+00
   0.116E+02 0.561E+02 0.472E+02   -.209E+02 -.711E+02 -.501E+02   0.915E+01 0.145E+02 0.279E+01
   -.446E+02 0.549E+02 0.108E+03   0.394E+02 -.528E+02 -.107E+03   0.348E+01 -.188E+01 -.197E+01
   -.487E+01 0.150E+02 -.282E+03   0.850E+01 -.198E+02 0.276E+03   -.180E+01 0.427E+01 0.763E+01
   0.272E+01 -.117E+02 -.673E+01   -.291E-12 -.220E-12 0.000E+00   -.247E+01 0.996E+01 0.638E+01

 POSITION                                       TOTAL-FORCE (eV/Angst)
      2.88329     12.54385      9.93640        -0.130598     -0.010077      0.010353
      0.68404      1.24301      9.94938        -0.048502      0.049279     -0.000123
      1.47324     12.55355      9.94347         0.144250     -0.008914     -0.006013
      3.50342      1.21129      9.95206         0.038066      0.071830      0.005231
      2.80343      2.44572      9.97164        -0.035504     -0.014001     -0.009488
      0.71590      3.75732      9.97041        -0.120167     -0.043447      0.007724
      1.39004      2.48455      9.96049         0.047673     -0.050624      0.005289
      3.52531      3.66882     10.02374         0.060801     -0.079197      0.030556
      0.83495      6.26849      9.95468         0.017941      0.015513      0.009237
      1.50411      4.98019      9.97663         0.319003     -0.059517      0.020714
      0.79939      8.78325      9.93705        -0.104575      0.050723      0.013531
      1.56003      7.54383      9.93981         0.260952     -0.015559      0.017616
      3.59000      8.82137      9.91321         0.038401      0.005618     -0.019369
      2.89782     10.06371      9.92664         0.041091      0.009852     -0.014835
      0.77952     11.29836      9.94283        -0.041408     -0.043547     -0.012807
      1.48063     10.04939      9.93866         0.016806      0.028223     -0.016832
      3.59286     11.30720      9.92261         0.038786     -0.046605      0.001770
      7.13047     12.55383      9.91121        -0.069964     -0.020442      0.009821
      4.91745      1.21535      9.95529        -0.054230      0.028901     -0.000342
      5.71591     12.54632      9.92119         0.097763      0.019320     -0.012675
      7.74528      1.22952      9.94882        -0.003206      0.062646     -0.005289
      7.04577      2.45916     10.02929         0.278920     -0.042567      0.000077
      5.60984      2.45798     10.01447        -0.069095      0.120288      0.130143
      7.09255      7.63048      9.90213         0.123114     -0.493323      0.092802
      5.01902      8.83181      9.87895        -0.101818      0.060894      0.021344
      7.82313      8.85229      9.88116         0.112341      0.140835      0.003645
      7.12476     10.08571      9.87018         0.063910     -0.012214      0.019618
      5.00437     11.31141      9.90678        -0.047867     -0.038519     -0.002059
      5.70511     10.07080      9.88302        -0.102746     -0.025182     -0.012738
      7.83262     11.31681      9.88826        -0.008220     -0.023437      0.015342
     11.35651     12.56309      9.93798        -0.135846      0.000730     -0.004403
      9.16039      1.25901      9.94793        -0.058765      0.026365      0.016163
      9.94794     12.56807      9.92673         0.128094      0.013666      0.012472
     11.95778      1.25989      9.94770         0.067337      0.030870      0.003210
     11.26519      2.52465      9.96121        -0.025486     -0.053884      0.001153
      9.10272      3.78278     10.04734        -0.176414     -0.273443     -0.018324
      9.84052      2.52862      9.97637         0.027685     -0.017305     -0.015953
     11.97948      3.78277      9.97279         0.119918     -0.053304     -0.006458
     11.27954      5.05242      9.98133        -0.097968      0.078482      0.014056
      9.14236      6.33638      9.99283        -0.025887      0.172443     -0.001362
      9.82892      5.06358     10.01879         0.108599      0.138987      0.010813
     12.06354      6.27796      9.95677        -0.115552      0.067647      0.016027
     11.35108      7.52574      9.94217        -0.002605     -0.079985      0.009984
      9.23843      8.81496      9.91357        -0.156912      0.032369     -0.007774
      9.91524      7.54524      9.94387         0.024546     -0.179300     -0.001358
     12.06436      8.78005      9.93563         0.120331      0.007790      0.002015
     11.36715     10.04390      9.93214        -0.011279      0.051543     -0.012482
      9.25010     11.31163      9.90568        -0.023958     -0.065832      0.005005
      9.94802     10.05815      9.91469         0.003452      0.040258     -0.001382
     12.05524     11.30099      9.93901         0.057908     -0.070075     -0.014687
      4.93870      3.70568     10.09162        -0.853316     -0.286688     -0.177519
      7.68949      3.71571     10.13897         0.340812     -0.463053      0.086705
      2.86848      4.88557     10.00397        -0.743411     -0.514162      0.036212
      2.93505      7.60568      9.93056        -0.506803      0.474302     -0.072825
      7.73423      6.42720     10.02560         0.098741      0.964059     -0.108504
      5.71243      7.61222      9.84645         0.675802      0.652104      0.177846
      4.42185      6.11663      9.83483        -1.067944      0.140849     -0.548354
      6.33633      5.14368     10.73539         1.467001     -0.472181      0.297481
    total drift:                               -0.018077      0.006051      0.010212

  FREE ENERGIE OF THE ION-ELECTRON SYSTEM (eV)
  free  energy   TOTEN  =      -610.11568121 eV

  energy  without entropy=     -610.11568121  energy(sigma->0) =     -610.11568121

 stress matrix after NEB project (eV)
    -30.05599      1.31010      1.14398
      1.31008    -51.29549     -0.56581
      1.14790     -0.56423     -0.11314
  FORCES: max atom, RMS     1.569568    0.402573
  FORCE total and by dimension    3.065904    1.467001
  Stress total and by dimension   59.508821   51.295486
 writing wavefunctions

 total charge

[...]

 magnetization (x)

# of ion       s       p       d       tot
    1       -0.000  -0.002   0.000  -0.002
    2       -0.000  -0.002   0.000  -0.002
    3        0.000   0.001   0.000   0.001
    4        0.000  -0.001   0.000  -0.001
    5        0.000   0.000   0.000   0.001
    6        0.000  -0.003   0.000  -0.003
    7        0.000   0.004   0.000   0.005
    8        0.001   0.002   0.000   0.003
    9        0.000   0.003   0.000   0.003
   10        0.001   0.004   0.000   0.005
   11        0.000  -0.001   0.000  -0.001
   12        0.001   0.003   0.000   0.003
   13       -0.000   0.002   0.000   0.002
   14        0.000  -0.000   0.000  -0.000
   15       -0.000  -0.002   0.000  -0.002
   16        0.000   0.000   0.000   0.000
   17        0.000   0.002   0.000   0.002
   18       -0.000  -0.002   0.000  -0.002
   19        0.000   0.001   0.000   0.001
   20        0.000   0.003   0.000   0.003
   21        0.001   0.006   0.000   0.006
   22       -0.003  -0.014   0.000  -0.017
   23       -0.001  -0.002   0.000  -0.004
   24       -0.002  -0.006   0.000  -0.007
   25       -0.001  -0.004   0.000  -0.005
   26        0.000   0.003   0.000   0.004
   27       -0.000  -0.004   0.000  -0.004
   28       -0.000  -0.002   0.000  -0.002
   29       -0.000   0.002   0.000   0.001
   30        0.000   0.002   0.000   0.002
   31       -0.000  -0.005   0.000  -0.005
   32       -0.001  -0.009   0.000  -0.010
   33        0.000   0.004   0.000   0.004
   34        0.000   0.003   0.000   0.003
   35       -0.000  -0.002   0.000  -0.002
   36       -0.001  -0.015   0.000  -0.016
   37        0.001   0.007   0.000   0.008
   38        0.000   0.003   0.000   0.003
   39       -0.000  -0.003   0.000  -0.003
   40       -0.001  -0.006   0.000  -0.007
   41        0.001   0.009   0.000   0.010
   42        0.000   0.002   0.000   0.002
   43       -0.000  -0.003   0.000  -0.004
   44       -0.000  -0.002   0.000  -0.002
   45        0.000   0.003   0.000   0.004
   46        0.000   0.003   0.000   0.004
   47       -0.000  -0.003   0.000  -0.003
   48       -0.000  -0.004   0.000  -0.004
   49        0.000   0.003   0.000   0.003
   50        0.000   0.003   0.000   0.003
   51        0.018   0.050   0.000   0.067
   52        0.013   0.061   0.000   0.074
   53        0.007   0.016   0.000   0.024
   54        0.012   0.036   0.000   0.048
   55        0.007   0.042   0.000   0.048
   56       -0.004  -0.011   0.000  -0.016
   57        0.010  -0.009   3.363   3.363
   58       -0.071  -0.012  -2.431  -2.513
tot         -0.011   0.154   0.932   1.075