 vasp.5.4.4.18Apr17-6-g9f103f2a35 (build Feb 25 2019 10:51:38) complex

 executed on             LinuxIFC date 2021.08.09  11:58:45

 INCAR:
 POTCAR:    PAW_PBE C 08Apr2002
 POTCAR:    PAW_PBE N 08Apr2002
 POTCAR:    PAW_PBE Fe 06Sep2000
 POTCAR:    PAW_PBE Ni 02Aug2007

 POTCAR:    PAW_PBE C 08Apr2002
   VRHFIN =C: s2p2

   TITEL  = PAW_PBE C 08Apr2002
   POMASS =   12.011; ZVAL   =    4.000    mass and valenz
   ENMAX  =  400.000; ENMIN  =  300.000 eV

 POTCAR:    PAW_PBE N 08Apr2002
   VRHFIN =N: s2p3

   TITEL  = PAW_PBE N 08Apr2002
   POMASS =   14.001; ZVAL   =    5.000    mass and valenz
   ENMAX  =  400.000; ENMIN  =  300.000 eV

 POTCAR:    PAW_PBE Fe 06Sep2000
   VRHFIN =Fe:  d7 s1

   TITEL  = PAW_PBE Fe 06Sep2000
   POMASS =   55.847; ZVAL   =    8.000    mass and valenz
   ENMAX  =  267.882; ENMIN  =  200.911 eV

 POTCAR:    PAW_PBE Ni 02Aug2007
   VRHFIN =Ni:

   TITEL  = PAW_PBE Ni 02Aug2007
   POMASS =   58.690; ZVAL   =   10.000    mass and valenz
   ENMAX  =  269.532; ENMIN  =  202.149 eV

  PAW_PBE C 08Apr2002                   :
  PAW_PBE N 08Apr2002                   :
  PAW_PBE Fe 06Sep2000                  :
  PAW_PBE Ni 02Aug2007                  :

 POSCAR:  C  N Fe Ni
  positions in cartesian coordinates
 exchange correlation table for  LEXCH =        8
   RHO(1)=    0.500       N(1)  =     2000
   RHO(2)=  100.500       N(2)  =     4000

 VTST: version 3.2, (02/03/18)

 CHAIN: initializing optimizer

 OPT: Using VASP Conjugate-Gradient optimizer
 CHAIN: Read ICHAIN            0

 POSCAR:  C  N Fe Ni
  positions in cartesian coordinates

 ion  position               nearest neighbor table
   1  0.221  0.999  0.500-   4 1.42  19 1.43   3 1.43
   2  0.052  0.101  0.500-   7 1.42   3 1.42  34 1.44
   3  0.109  0.001  0.500-  17 1.42   2 1.42   1 1.43
   4  0.275  0.099  0.500-   1 1.42   5 1.42  21 1.43
   5  0.218  0.200  0.500-   8 1.41   4 1.42   7 1.43
   6  0.052  0.301  0.500-   7 1.41  11 1.43  38 1.43
   7  0.107  0.201  0.500-   6 1.41   2 1.42   5 1.43
   8  0.273  0.298  0.500-  51 1.38   5 1.41   9 1.43
   9  0.218  0.400  0.500-  50 1.39  11 1.42   8 1.43
  10  0.055  0.502  0.500-  11 1.41  41 1.42  14 1.43
  11  0.108  0.400  0.500-  10 1.41   9 1.42   6 1.43
  12  0.225  0.596  0.500-  50 1.38  14 1.43  15 1.47
  13  0.057  0.701  0.500-  18 1.42  14 1.43  45 1.43
  14  0.113  0.600  0.500-  13 1.43  12 1.43  10 1.43
  15  0.283  0.698  0.500-  53 1.37  16 1.44  12 1.47
  16  0.224  0.798  0.500-  19 1.42  18 1.44  15 1.44
  17  0.055  0.901  0.500-   3 1.42  18 1.43  49 1.44
  18  0.112  0.801  0.500-  13 1.42  17 1.43  16 1.44
  19  0.278  0.898  0.500-  16 1.42  28 1.43   1 1.43
  20  0.553  0.001  0.500-  22 1.42  30 1.44  23 1.45
  21  0.386  0.101  0.500-   4 1.43  22 1.43  25 1.44
  22  0.443  1.000  0.500-  20 1.42  21 1.43  28 1.44
  23  0.606  0.104  0.500-  24 1.44  32 1.44  20 1.45
  24  0.549  0.206  0.500-  23 1.44  25 1.44  26 1.46
  25  0.437  0.205  0.500-  51 1.38  24 1.44  21 1.44
  26  0.605  0.309  0.500-  52 1.34  36 1.45  24 1.46
  27  0.558  0.794  0.500-  54 1.38  30 1.46  29 1.49
  28  0.389  0.897  0.500-  19 1.43  22 1.44  29 1.45
  29  0.442  0.792  0.500-  53 1.37  28 1.45  27 1.49
  30  0.609  0.899  0.500-  47 1.44  20 1.44  27 1.46
  31  0.886  0.003  0.500-  34 1.42  49 1.43  33 1.44
  32  0.718  0.105  0.500-  33 1.43  37 1.44  23 1.44
  33  0.775  0.004  0.500-  32 1.43  47 1.43  31 1.44
  34  0.941  0.103  0.500-  31 1.42  35 1.43   2 1.44
  35  0.885  0.204  0.500-  38 1.43  34 1.43  37 1.44
  36  0.718  0.309  0.500-  37 1.43  40 1.45  26 1.45
  37  0.773  0.207  0.500-  36 1.43  35 1.44  32 1.44
  38  0.941  0.303  0.500-  39 1.42  35 1.43   6 1.43
  39  0.887  0.405  0.500-  38 1.42  41 1.43  40 1.44
  40  0.776  0.409  0.501-  55 1.37  39 1.44  36 1.45
  41  0.945  0.503  0.500-  42 1.42  10 1.42  39 1.43
  42  0.891  0.604  0.500-  44 1.41  41 1.42  45 1.42
  43  0.723  0.705  0.500-  54 1.39  48 1.42  44 1.44
  44  0.782  0.604  0.501-  55 1.37  42 1.41  43 1.44
  45  0.947  0.703  0.500-  46 1.42  42 1.42  13 1.43
  46  0.889  0.803  0.500-  49 1.42  45 1.42  48 1.44
  47  0.720  0.903  0.500-  48 1.42  33 1.43  30 1.44
  48  0.778  0.804  0.500-  43 1.42  47 1.42  46 1.44
  49  0.944  0.903  0.500-  46 1.42  31 1.43  17 1.44
  50  0.275  0.496  0.499-  12 1.38   9 1.39  56 1.95
  51  0.380  0.301  0.499-   8 1.38  25 1.38  56 2.01
  52  0.553  0.404  0.500-  26 1.34  57 1.74  56 1.80
  53  0.389  0.697  0.500-  29 1.37  15 1.37
  54  0.616  0.698  0.500-  27 1.38  43 1.39  57 1.97
  55  0.728  0.510  0.501-  44 1.37  40 1.37  57 1.85
  56  0.422  0.458  0.498-  52 1.80  50 1.95  51 2.01  57 2.37
  57  0.586  0.541  0.500-  52 1.74  55 1.85  54 1.97  56 2.37

  LATTYP: Found a triclinic cell.
 ALAT       =    17.6610964577
 B/A-ratio  =     0.6943921726
 C/A-ratio  =     1.1377796987
 COS(alpha) =     0.0003710765
 COS(beta)  =     0.0015022875
 COS(gamma) =     0.6835142270

  Lattice vectors:

 A1 = ( -12.7998078257,  12.1687746530,  -0.0130826877)
 A2 = (   0.0927630964,  12.2633760995,  -0.0022357717)
 A3 = (  -0.0173828665,   0.0039248010, -20.0944291037)

Analysis of symmetry for initial positions (statically):
 Subroutine PRICEL returns:
 Original cell was already a primitive cell.

 Routine SETGRP: Setting up the symmetry group for a
 triclinic supercell.

 Subroutine GETGRP returns: Found  1 space group operations
 (whereof  1 operations were pure point group operations)
 out of a pool of  2 trial point group operations.

The static configuration has the point symmetry C_1 .

Analysis of symmetry for dynamics (positions and initial velocities):
 Subroutine PRICEL returns:
 Original cell was already a primitive cell.

[...]

The dynamic configuration has the point symmetry C_1 .

Analysis of structural, dynamic, and magnetic symmetry:
 Subroutine PRICEL returns:
 Original cell was already a primitive cell.

 Routine SETGRP: Setting up the symmetry group for a
 triclinic supercell.

 Subroutine GETGRP returns: Found  1 space group operations
 (whereof  1 operations were pure point group operations)
 out of a pool of  2 trial point group operations.

The magnetic configuration has the point symmetry C_1 .

 Subroutine INISYM returns: Found  1 space group operations
 (whereof  1 operations are pure point group operations),
 and found     1 'primitive' translations

 KPOINTS: KPOINTS created by Atomic Simulation Env

Automatic generation of k-mesh.
Space group operators:
 irot       det(A)        alpha          n_x          n_y          n_z        tau_x        tau_y        tau_z
    1     1.000000     0.000000     1.000000     0.000000     0.000000     0.000000     0.000000     0.000000

 Subroutine IBZKPT returns following result:

 Found      2 irreducible k-points:

 Following reciprocal coordinates:
            Coordinates               Weight
  0.250000  0.250000  0.000000      2.000000
 -0.250000  0.250000 -0.000000      2.000000

 Following cartesian coordinates:
            Coordinates               Weight
  0.019243  0.020240 -0.000013      2.000000
 -0.019542  0.020534  0.000021      2.000000

 Subroutine IBZKPT_HF returns following result:

 Found      4 k-points in 1st BZ
 the following      4 k-points will be used (e.g. in the exchange kernel)
 Following reciprocal coordinates:   # in IRBZ
  0.250000  0.250000  0.000000    0.25000000   1 t-inv F
 -0.250000  0.250000 -0.000000    0.25000000   2 t-inv F
 -0.250000 -0.250000 -0.000000    0.25000000   1 t-inv T
  0.250000 -0.250000  0.000000    0.25000000   2 t-inv T

 SYSTEM =  unknown system
 POSCAR =   C  N Fe Ni

 Startparameter for this run:
   NWRITE =      2    write-flag & timer
   PREC   = accura    normal or accurate (medium, high low for compatibility)
   ISTART =      1    job   : 0-new  1-cont  2-samecut
   ICHARG =      0    charge: 1-file 2-atom 10-const
   ISPIN  =      2    spin polarized calculation?
   LNONCOLLINEAR =      F non collinear calculations
   LSORBIT =      F    spin-orbit coupling
   INIWAV =      1    electr: 0-lowe 1-rand  2-diag
   LASPH  =      T    aspherical Exc in radial PAW
   METAGGA=      F    non-selfconsistent MetaGGA calc.

 Electronic Relaxation 1
   ENCUT  =  500.0 eV  36.75 Ry    6.06 a.u.  23.51 22.36 36.64*2*pi/ulx,y,z
   ENINI  =  500.0     initial cutoff
   ENAUG  =  644.9 eV  augmentation charge cutoff
   NELM   =    250;   NELMIN=  2; NELMDL=  0     # of ELM steps
   EDIFF  = 0.1E-03   stopping-criterion for ELM
   LREAL  =      F    real-space projection
   NLSPLINE    = F    spline interpolate recip. space projectors
   LCOMPAT=      F    compatible to vasp.4.4
   GGA_COMPAT  = T    GGA compatible to vasp.4.4-vasp.4.6
   LMAXPAW     = -100 max onsite density
   LMAXMIX     =    2 max onsite mixed and CHGCAR
   VOSKOWN=      0    Vosko Wilk Nusair interpolation
   ROPT   =    0.00000   0.00000   0.00000   0.00000
 Ionic relaxation
   EDIFFG = -.3E-01   stopping-criterion for IOM
   NSW    =      0    number of steps for IOM
   NBLOCK =      1;   KBLOCK =      1    inner block; outer block
   IBRION =     -1    ionic relax: 0-MD 1-quasi-New 2-CG
   NFREE  =      1    steps in history (QN), initial steepest desc. (CG)
   ISIF   =      2    stress and relaxation
   IWAVPR =     10    prediction:  0-non 1-charg 2-wave 3-comb
   ISYM   =      3    0-nonsym 1-usesym 2-fastsym
   LCORR  =      T    Harris-Foulkes like correction to forces

   POTIM  = 0.5000    time-step for ionic-motion
   TEIN   =    0.0    initial temperature
   TEBEG  =    0.0;   TEEND  =   0.0 temperature during run
   SMASS  =  -3.00    Nose mass-parameter (am)
   estimated Nose-frequenzy (Omega)   =  0.10E-29 period in steps =****** mass=  -0.380E-26a.u.
   SCALEE = 1.0000    scale energy and forces
   NPACO  =    256;   APACO  = 16.0  distance and # of slots for P.C.
   PSTRESS=    0.0 pullay stress

  Mass of Ions in am
   POMASS =  12.01 14.00 55.85 58.69
  Ionic Valenz
   ZVAL   =   4.00  5.00  8.00 10.00
  Atomic Wigner-Seitz radii
  virtual crystal weights
   VCA    =   1.00  1.00  1.00  1.00
   NELECT =     244.0000    total number of electrons
   NUPDOWN=      -1.0000    fix difference up-down

 DOS related values:
   EMIN   =  10.00;   EMAX   =-10.00  energy-range for DOS
   EFERMI =   0.00
   ISMEAR =     0;   SIGMA  =   0.10  broadening in eV -4-tet -1-fermi 0-gaus

 Electronic relaxation 2 (details)
   IALGO  =     53    algorithm
   LDIAG  =      T    sub-space diagonalisation (order eigenvalues)
   LSUBROT=      F    optimize rotation matrix (better conditioning)
   TURBO    =      0    0=normal 1=particle mesh
   IRESTART =      0    0=no restart 2=restart with 2 vectors
   NREBOOT  =      0    no. of reboots
   NMIN     =      0    reboot dimension
   EREF     =   0.00    reference energy to select bands
   IMIX   =      4    mixing-type and parameters
     AMIX     =   0.40;   BMIX     =  1.00
     AMIX_MAG =   1.60;   BMIX_MAG =  1.00
     AMIN     =   0.10
     WC   =   100.;   INIMIX=   1;  MIXPRE=   1;  MAXMIX= -45

 Intra band minimization:
   WEIMIN = 0.0000     energy-eigenvalue tresh-hold
   EBREAK =  0.16E-06  absolut break condition
   DEPER  =   0.30     relativ break condition

[...]
   27        0.849   1.687   0.000   2.535
   28        0.861   1.749   0.000   2.610
   29        0.850   1.696   0.000   2.546
   30        0.859   1.744   0.000   2.602
   31        0.865   1.773   0.000   2.637
   32        0.861   1.757   0.000   2.617
   33        0.863   1.759   0.000   2.622
   34        0.867   1.768   0.000   2.634
   35        0.865   1.766   0.000   2.631
   36        0.856   1.755   0.000   2.611
   37        0.862   1.744   0.000   2.606
   38        0.868   1.775   0.000   2.643
   39        0.868   1.774   0.000   2.642
   40        0.856   1.723   0.000   2.579
   41        0.870   1.783   0.000   2.652
   42        0.874   1.803   0.000   2.677
   43        0.863   1.750   0.000   2.613
   44        0.869   1.767   0.000   2.636
   45        0.869   1.783   0.000   2.652
   46        0.867   1.783   0.000   2.649
   47        0.868   1.761   0.000   2.629
   48        0.869   1.780   0.000   2.650
   49        0.867   1.771   0.000   2.638
   50        1.230   2.674   0.000   3.904
   51        1.239   2.660   0.000   3.898
   52        1.251   2.620   0.000   3.871
   53        1.249   2.605   0.000   3.853
   54        1.234   2.624   0.000   3.858
   55        1.236   2.680   0.000   3.916
   56        0.445   0.544   6.145   7.134
   57        0.490   0.612   8.513   9.615
tot         50.692 103.234  14.658 168.584

 magnetization (x)

[...]

  FORCE on cell =-STRESS in cart. coord.  units (eV):
  Direction    XX          YY          ZZ          XY          YZ          ZX
  Alpha Z    97.77143    97.77143    97.77143
  Ewald   48390.92167 48393.80150-57052.47857    34.66573   -22.90859    90.97351
  Hartree 47953.76992 47936.91817-47213.74577    53.17976   -18.96075    83.07871
  E(xc)    -722.71363  -721.91992  -736.51159    -0.28971     0.00088     0.01555
  Local  -99085.21557-99057.53610101034.48012   -97.21350    41.72532  -173.51241
  n-local  -128.34485  -130.86245  -116.77854    -0.25277    -0.04876    -0.08651
  augment   186.27928   181.71452   201.64570    -0.21615    -0.11544    -0.24476
  Kinetic  3623.03686  3613.11618  4122.09441    11.53166     0.27635    -0.32908
  Fock     -357.02582  -355.14731  -336.84210    -0.56260     0.05658     0.10384
  Total     -41.52071   -42.14397    -0.36493     0.84242     0.02560    -0.00114
  in kB     -20.93990   -21.25422    -0.18404     0.42485     0.01291    -0.00058

 VOLUME and BASIS-vectors are now :
  energy-cutoff  :      500.00
  volume of cell :     3176.88
      direct lattice vectors                 reciprocal lattice vectors
    12.892570922  0.094601447  0.010846916     0.077568411 -0.000586758 -0.000067216
     0.092763096 12.263376100 -0.002235772    -0.000598387  0.081548143  0.000016445
     0.017382866 -0.003924801 20.094429104    -0.000041938  0.000009390  0.049765075

  length of vectors
    12.892922557 12.263727139 20.094437006     0.077570659  0.081550340  0.049765093

 FORCES acting on ions:
    Electron-Ion                     Ewald-Force                    Non-Local-Force
   0.185E+01 0.672E+01 -.113E+01   -.212E+01 -.664E+01 0.113E+01   0.237E+00 -.334E-01 -.929E-02
   0.484E+01 0.541E+01 -.879E+00   -.494E+01 -.547E+01 0.881E+00   0.111E+00 0.944E-01 -.513E-02
   -.268E+01 0.817E+00 -.810E+00   0.266E+01 -.816E+00 0.807E+00   0.413E-01 -.167E-01 -.181E-03
   0.536E+00 0.120E+02 -.569E+00   -.554E+00 -.123E+02 0.563E+00   0.218E-01 0.270E+00 0.381E-02
   0.124E+02 0.133E+02 -.470E+00   -.128E+02 -.134E+02 0.473E+00   0.322E+00 0.134E+00 -.728E-02
   0.545E+01 0.336E+01 -.627E+00   -.573E+01 -.373E+01 0.624E+00   0.238E+00 0.358E+00 -.431E-04
   0.220E+01 0.747E+01 -.992E+00   -.248E+01 -.755E+01 0.993E+00   0.279E+00 0.413E-01 -.646E-02
   0.347E+02 0.115E+02 0.127E+01   -.373E+02 -.120E+02 -.125E+01   0.292E+01 0.290E+00 -.141E-01
   0.234E+02 0.164E+02 0.131E+01   -.251E+02 -.193E+02 -.129E+01   0.174E+01 0.304E+01 -.197E-01
   0.122E+01 -.722E+01 0.199E+00   -.131E+01 0.731E+01 -.206E+00   0.146E+00 -.116E+00 0.858E-02
   0.915E+01 0.708E+01 0.923E-01   -.963E+01 -.749E+01 -.847E-01   0.435E+00 0.401E+00 -.734E-02
   -.204E+01 -.411E+02 0.743E+00   0.684E+00 0.444E+02 -.726E+00   0.123E+01 -.338E+01 -.184E-01
   -.391E+01 -.298E+01 0.330E+00   0.385E+01 0.336E+01 -.329E+00   0.179E-01 -.260E+00 0.129E-02
   -.139E+01 -.997E+01 0.433E+00   0.134E+01 0.103E+02 -.431E+00   0.142E+00 -.350E+00 0.613E-03
   0.202E+02 0.106E+02 0.122E+00   -.224E+02 -.101E+02 -.126E+00   0.227E+01 -.340E+00 0.227E-02
   0.489E+01 0.107E+01 -.562E+00   -.506E+01 -.135E+01 0.564E+00   0.224E+00 0.278E+00 -.504E-02
   0.101E+01 0.456E+00 -.636E-01   -.105E+01 -.386E+00 0.660E-01   0.313E-01 -.417E-01 -.683E-03
   -.670E+01 -.512E+01 -.685E-01   0.645E+01 0.520E+01 0.662E-01   0.161E+00 -.129E+00 0.101E-02
   -.396E+00 -.332E+01 -.855E+00   0.419E+00 0.345E+01 0.850E+00   -.321E-02 -.162E+00 0.185E-02
   -.357E+01 -.619E-01 0.199E-01   0.355E+01 0.372E+00 -.251E-01   0.416E-03 -.275E+00 0.339E-02
   -.539E+01 0.137E+02 -.201E-02   0.571E+01 -.139E+02 0.292E-02   -.293E+00 0.101E+00 -.116E-02
   0.121E+01 0.693E+01 -.364E+00   -.802E+00 -.680E+01 0.368E+00   -.362E+00 -.789E-01 -.429E-02
   -.746E+00 0.829E+01 0.188E+00   0.558E+00 -.801E+01 -.182E+00   0.462E-01 -.182E+00 -.452E-02
   -.701E+01 0.166E+02 0.811E+00   0.725E+01 -.163E+02 -.819E+00   -.238E+00 -.475E+00 0.926E-02
   -.212E+02 0.372E+02 0.116E+01   0.233E+02 -.396E+02 -.113E+01   -.221E+01 0.254E+01 -.267E-01
   -.241E+02 0.670E+02 -.530E+00   0.252E+02 -.687E+02 0.528E+00   -.149E+01 0.250E+01 -.739E-02
   0.392E+02 -.318E+02 -.527E+00   -.410E+02 0.342E+02 0.519E+00   0.210E+01 -.257E+01 0.610E-02
   -.694E+01 -.292E+01 -.658E+00   0.737E+01 0.298E+01 0.658E+00   -.444E+00 -.123E+00 -.223E-02
   -.214E+02 -.166E+02 -.515E+00   0.222E+02 0.186E+02 0.517E+00   -.105E+01 -.215E+01 -.543E-02
   0.107E+02 -.787E+01 -.162E+00   -.109E+02 0.829E+01 0.167E+00   0.292E+00 -.394E+00 -.589E-02
   0.304E+01 -.562E+00 0.462E+00   -.312E+01 0.619E+00 -.457E+00   0.581E-01 -.318E-01 -.478E-03
   0.917E+00 0.190E+01 0.566E-01   -.900E+00 -.187E+01 -.559E-01   0.656E-01 -.147E+00 -.409E-03
   -.238E+00 -.239E+01 0.643E+00   0.340E+00 0.299E+01 -.644E+00   -.726E-01 -.413E+00 0.521E-02
   -.137E+01 0.188E+01 -.197E+00   0.120E+01 -.194E+01 0.195E+00   0.144E+00 0.270E-01 0.337E-02
   0.285E+01 0.725E+01 -.600E+00   -.307E+01 -.740E+01 0.604E+00   0.228E+00 0.120E+00 0.234E-03
   -.944E+01 0.228E+02 -.223E+01   0.884E+01 -.229E+02 0.224E+01   0.748E+00 -.739E-01 -.151E-01
   -.225E+01 0.113E+02 -.808E+00   0.192E+01 -.110E+02 0.809E+00   0.300E+00 -.205E+00 -.105E-04
   -.289E+01 0.935E+01 -.873E+00   0.286E+01 -.968E+01 0.873E+00   0.713E-01 0.311E+00 0.622E-03
   -.111E+02 0.124E+02 -.145E+01   0.111E+02 -.127E+02 0.144E+01   0.257E-01 0.326E+00 0.550E-02
   -.263E+02 0.524E+02 -.273E+01   0.273E+02 -.559E+02 0.270E+01   -.111E+01 0.357E+01 0.256E-01
   -.139E+02 0.415E+01 -.833E+00   0.139E+02 -.435E+01 0.844E+00   -.211E-01 0.128E+00 -.105E-01
   -.217E+02 -.103E+02 -.530E+00   0.220E+02 0.106E+02 0.524E+00   -.389E+00 -.279E+00 0.901E-02
   -.334E+02 -.324E+02 -.136E+01   0.361E+02 0.327E+02 0.137E+01   -.302E+01 -.223E+00 -.133E-01
   -.429E+02 -.401E+02 -.227E+01   0.447E+02 0.425E+02 0.225E+01   -.169E+01 -.292E+01 0.128E-01
   -.121E+02 -.780E+01 0.369E+00   0.123E+02 0.817E+01 -.371E+00   -.153E+00 -.342E+00 0.545E-02
   -.193E+01 -.896E+01 0.409E+00   0.232E+01 0.910E+01 -.405E+00   -.308E+00 -.112E+00 -.250E-02
   0.206E+01 -.162E+02 0.479E+00   -.208E+01 0.166E+02 -.482E+00   -.191E-01 -.486E+00 0.684E-02
   -.131E+02 -.175E+02 0.624E-01   0.135E+02 0.178E+02 -.629E-01   -.423E+00 -.270E+00 0.244E-02
   -.533E+01 -.628E+01 0.560E+00   0.527E+01 0.640E+01 -.562E+00   0.496E-01 -.170E+00 0.576E-02
   -.399E+02 -.357E+02 0.285E+01   0.598E+02 0.352E+02 -.292E+01   -.192E+02 0.540E+00 0.789E-01
   -.244E+02 -.105E+02 0.408E+01   0.359E+02 0.303E+02 -.426E+01   -.112E+02 -.192E+02 0.179E+00
   0.192E+02 0.752E+02 0.145E+01   -.264E+02 -.644E+02 -.151E+01   0.753E+01 -.111E+02 0.528E-01
   -.490E+02 0.859E+02 -.410E-01   0.644E+02 -.113E+03 0.199E-01   -.145E+02 0.252E+02 0.170E-01
   0.603E+02 -.206E+02 -.158E+01   -.711E+02 0.344E+00 0.161E+01   0.104E+02 0.194E+02 -.281E-01
   -.313E+02 0.268E+02 -.724E+01   0.107E+02 -.266E+02 0.751E+01   0.196E+02 -.739E-01 -.268E+00
   0.786E+02 -.101E+03 0.185E+02   -.772E+02 0.975E+02 -.182E+02   -.208E+01 0.408E+01 -.300E+00
   0.120E+03 -.136E+03 -.371E+01   -.118E+03 0.136E+03 0.373E+01   -.235E+01 0.216E+01 -.213E-02
   0.108E+02 -.189E+02 0.362E+00   0.441E-12 0.398E-12 -.355E-14   -.104E+02 0.188E+02 -.343E+00

 POSITION                                       TOTAL-FORCE (eV/Angst)
      2.94727     12.27525     10.04988        -0.014834      0.048687     -0.005573
      0.69103      1.24195     10.05034         0.022745      0.042322     -0.003389
      1.41984      0.01752     10.05081         0.019554     -0.019570     -0.003489
      3.56237      1.24219     10.04954         0.002255     -0.004916     -0.002925
      2.83674      2.46643     10.04713        -0.056080      0.045737     -0.004377
      0.70530      3.69519     10.04862        -0.025195      0.001958     -0.002777
      1.40783      2.46710     10.04975         0.012596     -0.031234     -0.006011
      3.55922      3.68070     10.03950         0.435997     -0.208578      0.000407
      2.85988      4.92609     10.03884         0.140965      0.324380      0.000769
      0.76570      6.15428     10.04534         0.067150     -0.048682      0.001864
      1.44424      4.91537     10.04461        -0.027561      0.021126     -0.000209
      2.95980      7.32350     10.04101        -0.064590     -0.340739     -0.002933
      0.81373      8.60563     10.04470        -0.036905      0.118904      0.002560
      1.52671      7.36992     10.04351         0.105057     -0.045674      0.003140
      3.72449      8.58394     10.04557         0.205493      0.146088     -0.001574
      2.96665      9.80776     10.04809         0.075952      0.008799     -0.003774
      0.80123     11.05402     10.04613        -0.000374      0.030656      0.001793
      1.53070      9.82674     10.04623        -0.087427     -0.063258     -0.001207
      3.67691     11.04266     10.05009         0.019702     -0.046161     -0.002365
      7.14092      0.06192     10.05247        -0.028484      0.017480     -0.001583
      4.99140      1.27153     10.04822         0.009258     -0.080320     -0.000337
      5.80936     12.30052     10.04947         0.037752      0.052233     -0.000980
      7.83413      1.33183     10.05176        -0.136156      0.083487      0.000570
      7.10931      2.57477     10.04764        -0.010996     -0.224948      0.002011
      5.66759      2.54832     10.04275        -0.214885      0.219042     -0.000146
      7.83783      3.84243     10.05194        -0.463909      0.951749     -0.010717
      7.27374      9.78317     10.05409         0.448948     -0.303860     -0.001400
      5.10873     11.04014     10.05068        -0.037834     -0.071928     -0.001944
      5.78700      9.75820     10.05094        -0.404960     -0.231571     -0.003376
      7.94593     11.07764     10.05259         0.066913      0.012685     -0.001224
     11.43197      0.11868     10.05619        -0.018972      0.025640      0.004131
      9.27373      1.35757     10.05488         0.088062     -0.126929      0.000245
      9.99458      0.12305     10.05440         0.023660      0.167469      0.005245
     12.14784      1.34775     10.05889        -0.028221     -0.030230      0.001634
     11.43204      2.58096     10.05997         0.028839     -0.022812      0.004526
      9.29243      3.85451     10.06164         0.190375     -0.125192     -0.004531
      9.99298      2.60464     10.05905        -0.018123      0.140862      0.001378
     12.16803      3.80201     10.06126         0.044890     -0.001333      0.000786
     11.48306      5.04405     10.06331         0.082350      0.034055     -0.002588
     10.04693      5.09175     10.06638        -0.131129      0.273929     -0.005587
     12.23816      6.25565     10.06058        -0.071894     -0.064215      0.000165
     11.55265      7.49511     10.06007        -0.087237      0.028622      0.003560
      9.39178      8.70634     10.05993        -0.500160      0.134869     -0.003435
     10.14523      7.48450     10.06470        -0.033490     -0.669395     -0.000329
     12.27821      8.71420     10.05610         0.034359      0.012556      0.003625
     11.54978      9.93054     10.05492         0.070759      0.019834      0.001636
      9.38003     11.13990     10.05260        -0.042795     -0.153747      0.004346
     10.11385      9.92574     10.05543        -0.044936      0.047967      0.002078
     12.25768     11.15892     10.05444        -0.013351     -0.054914      0.004606
      3.59737      6.10350     10.03500        -1.018908      0.075044      0.008275
      4.93712      3.71990     10.03442        -0.594777     -1.093979      0.019096
      7.17470      5.00281     10.04528         0.975994     -1.277889      0.002839
      5.09175      8.58095     10.04757        -0.312718      0.746511     -0.002581
      8.00911      8.61758     10.05774         0.450265      0.801444     -0.000903
      9.43622      6.31768     10.07097         0.681731      0.104060     -0.019460
      5.49083      5.65091     10.01897        -0.209598      0.293480      0.017927
      7.61853      6.68516     10.05586         0.394878      0.310399      0.002513
    total drift:                               -0.016631      0.006173     -0.000009

  FREE ENERGIE OF THE ION-ELECTRON SYSTEM (eV)
  free  energy   TOTEN  =      -595.68952014 eV

  energy  without entropy=     -595.68431516  energy(sigma->0) =     -595.68691765

 stress matrix after NEB project (eV)
    -41.52071      0.84275     -0.00114
      0.84242    -42.14397      0.02459
      0.00029      0.02560     -0.36493
  FORCES: max atom, RMS     1.607972    0.438985
  FORCE total and by dimension    3.314267    1.277889
  Stress total and by dimension   59.174637   42.143967
 writing wavefunctions

 total charge

[...]

 magnetization (x)

# of ion       s       p       d       tot
    1        0.000   0.008   0.000   0.008
    2       -0.000   0.000   0.000  -0.000
    3        0.001   0.014   0.000   0.015
    4       -0.000  -0.004   0.000  -0.004
    5       -0.000  -0.001   0.000  -0.001
    6       -0.000   0.003   0.000   0.003
    7        0.001   0.009   0.000   0.010
    8        0.000   0.015   0.000   0.015
    9        0.001   0.009   0.000   0.010
   10        0.000   0.008   0.000   0.009
   11       -0.000   0.001   0.000   0.001
   12        0.000   0.009   0.000   0.009
   13        0.000   0.004   0.000   0.004
   14        0.001   0.011   0.000   0.011
   15        0.000   0.017   0.000   0.017
   16       -0.000  -0.002   0.000  -0.003
   17       -0.000  -0.001   0.000  -0.001
   18        0.001   0.013   0.000   0.013
   19       -0.000  -0.003   0.000  -0.003
   20        0.001   0.022   0.000   0.024
   21        0.001   0.010   0.000   0.011
   22        0.000   0.003   0.000   0.003
   23       -0.000  -0.003   0.000  -0.004
   24        0.002   0.017   0.000   0.019
   25       -0.001  -0.018   0.000  -0.019
   26        0.000   0.002   0.000   0.002
   27        0.001   0.013   0.000   0.013
   28        0.000   0.003   0.000   0.004
   29       -0.000   0.000   0.000   0.000
   30       -0.001  -0.003   0.000  -0.004
   31        0.000   0.008   0.000   0.009
   32        0.000   0.001   0.000   0.001
   33        0.000   0.003   0.000   0.003
   34        0.000   0.003   0.000   0.003
   35        0.000   0.006   0.000   0.007
   36        0.002   0.017   0.000   0.019
   37       -0.000  -0.003   0.000  -0.003
   38        0.000   0.005   0.000   0.005
   39       -0.000   0.002   0.000   0.002
   40       -0.000   0.002   0.000   0.002
   41        0.000   0.009   0.000   0.010
   42       -0.000   0.006   0.000   0.006
   43        0.000   0.018   0.000   0.018
   44        0.000   0.011   0.000   0.011
   45        0.000   0.008   0.000   0.008
   46        0.000   0.005   0.000   0.005
   47        0.000   0.006   0.000   0.007
   48       -0.000  -0.002   0.000  -0.002
   49        0.000   0.004   0.000   0.004
   50       -0.000   0.061   0.000   0.061
   51        0.016   0.085   0.000   0.102
   52        0.001   0.050   0.000   0.051
   53        0.004   0.043   0.000   0.047
   54        0.001   0.024   0.000   0.025
   55       -0.006   0.020   0.000   0.014
   56        0.064   0.030   3.208   3.303
   57       -0.020  -0.030  -0.377  -0.427
tot          0.071   0.551   2.831   3.453