 vasp.5.4.4.18Apr17-6-g9f103f2a35 (build Feb 25 2019 10:51:38) complex

 executed on             LinuxIFC date 2021.03.06  04:11:00

 INCAR:
 POTCAR:    PAW_PBE C 08Apr2002
 POTCAR:    PAW_PBE N 08Apr2002
 POTCAR:    PAW_PBE Cu 22Jun2005
 POTCAR:    PAW_PBE Fe 06Sep2000

 POTCAR:    PAW_PBE C 08Apr2002
   VRHFIN =C: s2p2

   TITEL  = PAW_PBE C 08Apr2002
   POMASS =   12.011; ZVAL   =    4.000    mass and valenz
   ENMAX  =  400.000; ENMIN  =  300.000 eV

 POTCAR:    PAW_PBE N 08Apr2002
   VRHFIN =N: s2p3

   TITEL  = PAW_PBE N 08Apr2002
   POMASS =   14.001; ZVAL   =    5.000    mass and valenz
   ENMAX  =  400.000; ENMIN  =  300.000 eV

 POTCAR:    PAW_PBE Cu 22Jun2005
   VRHFIN =Cu: d10 p1

   TITEL  = PAW_PBE Cu 22Jun2005
   POMASS =   63.546; ZVAL   =   11.000    mass and valenz
   ENMAX  =  295.446; ENMIN  =  221.585 eV

 POTCAR:    PAW_PBE Fe 06Sep2000
   VRHFIN =Fe:  d7 s1

   TITEL  = PAW_PBE Fe 06Sep2000
   POMASS =   55.847; ZVAL   =    8.000    mass and valenz
   ENMAX  =  267.882; ENMIN  =  200.911 eV

  PAW_PBE C 08Apr2002                   :
  PAW_PBE N 08Apr2002                   :
  PAW_PBE Cu 22Jun2005                  :
  PAW_PBE Fe 06Sep2000                  :

 POSCAR:  C  N Cu Fe
  positions in cartesian coordinates
 exchange correlation table for  LEXCH =        8
   RHO(1)=    0.500       N(1)  =     2000
   RHO(2)=  100.500       N(2)  =     4000

 VTST: version 3.2, (02/03/18)

 CHAIN: initializing optimizer

 OPT: Using VASP Conjugate-Gradient optimizer
 CHAIN: Read ICHAIN            0

 POSCAR:  C  N Cu Fe
  positions in cartesian coordinates

 ion  position               nearest neighbor table
   1  0.222  0.999  0.500-   4 1.41   3 1.41  17 1.42
   2  0.055  0.100  0.500-  34 1.42   7 1.43   3 1.43
   3  0.110  0.000  0.500-   1 1.41  15 1.43   2 1.43
   4  0.277  0.096  0.500-   1 1.41  19 1.42   5 1.42
   5  0.223  0.196  0.500-   4 1.42   7 1.42   8 1.42
   6  0.058  0.300  0.500-   7 1.44  38 1.45  10 1.45
   7  0.111  0.199  0.500-   5 1.42   2 1.43   6 1.44
   8  0.282  0.292  0.500-  51 1.37  53 1.39   5 1.42
   9  0.064  0.498  0.500-  10 1.46  12 1.47  42 1.47
  10  0.121  0.397  0.500-  51 1.41   6 1.45   9 1.46
  11  0.057  0.700  0.500-  46 1.42  16 1.43  12 1.44
  12  0.117  0.602  0.500-  52 1.36  11 1.44   9 1.47
  13  0.277  0.704  0.500-  52 1.37  14 1.41  25 1.43
  14  0.222  0.802  0.500-  13 1.41  17 1.42  16 1.42
  15  0.055  0.900  0.500-  50 1.41  16 1.43   3 1.43
  16  0.111  0.801  0.500-  14 1.42  15 1.43  11 1.43
  17  0.277  0.901  0.500-  28 1.41  14 1.42   1 1.42
  18  0.556  0.998  0.500-  20 1.41  30 1.42  21 1.42
  19  0.389  0.096  0.500-  23 1.41   4 1.42  20 1.42
  20  0.445  0.998  0.500-  18 1.41  19 1.42  28 1.42
  21  0.611  0.097  0.500-  22 1.41  32 1.42  18 1.42
  22  0.555  0.194  0.500-  54 1.39  21 1.41  23 1.42
  23  0.443  0.194  0.500-  53 1.38  19 1.41  22 1.42
  24  0.553  0.606  0.500-  55 1.37  56 1.38  26 1.42
  25  0.390  0.703  0.500-  56 1.40  29 1.41  13 1.43
  26  0.611  0.703  0.500-  27 1.42  24 1.42  44 1.42
  27  0.556  0.802  0.500-  30 1.42  29 1.42  26 1.42
  28  0.389  0.900  0.500-  17 1.41  20 1.42  29 1.42
  29  0.444  0.801  0.500-  25 1.41  27 1.42  28 1.42
  30  0.612  0.900  0.500-  48 1.41  27 1.42  18 1.42
  31  0.889  0.000  0.500-  33 1.41  34 1.44  50 1.44
  32  0.723  0.099  0.500-  21 1.42  33 1.43  37 1.44
  33  0.778  1.000  0.500-  31 1.41  32 1.43  48 1.44
  34  0.943  0.101  0.500-   2 1.42  31 1.44  35 1.44
  35  0.888  0.201  0.500-  37 1.43  34 1.44  38 1.44
  36  0.715  0.299  0.500-  54 1.39  37 1.45  41 1.46
  37  0.775  0.200  0.500-  35 1.43  32 1.44  36 1.45
  38  0.944  0.302  0.500-  39 1.44  35 1.44   6 1.45
  39  0.886  0.401  0.500-  38 1.44  42 1.45  41 1.47
  40  0.715  0.503  0.500-  55 1.41  45 1.44  41 1.45
  41  0.770  0.401  0.500-  40 1.45  36 1.46  39 1.47
  42  0.948  0.499  0.500-  43 1.45  39 1.45   9 1.47
  43  0.890  0.598  0.500-  45 1.44  46 1.44  42 1.45
  44  0.723  0.700  0.500-  26 1.42  49 1.43  45 1.44
  45  0.777  0.599  0.500-  44 1.44  43 1.44  40 1.44
  46  0.945  0.699  0.500-  11 1.42  47 1.44  43 1.44
  47  0.890  0.799  0.500-  49 1.42  50 1.44  46 1.44
  48  0.723  0.899  0.500-  30 1.41  49 1.43  33 1.44
  49  0.778  0.800  0.500-  47 1.42  44 1.43  48 1.43
  50  0.944  0.900  0.500-  15 1.41  47 1.44  31 1.44
  51  0.232  0.388  0.500-   8 1.37  10 1.41  57 1.93
  52  0.224  0.609  0.500-  12 1.36  13 1.37  57 1.96
  53  0.391  0.291  0.500-  23 1.38   8 1.39  58 1.96
  54  0.606  0.292  0.501-  36 1.39  22 1.39  58 1.91
  55  0.604  0.510  0.500-  24 1.37  40 1.41  58 1.89
  56  0.444  0.606  0.500-  24 1.38  25 1.40  57 1.90
  57  0.336  0.501  0.500-  56 1.90  51 1.93  52 1.96  58 2.43
  58  0.500  0.401  0.501-  55 1.89  54 1.91  53 1.96  57 2.43

  LATTYP: Found a triclinic cell.
 ALAT       =    17.8236992414
 B/A-ratio  =     0.7034723796
 C/A-ratio  =     1.1209993736
 COS(alpha) =     0.0000517743
 COS(beta)  =     0.0004512583
 COS(gamma) =     0.7027192301

  Lattice vectors:

 A1 = (  12.6748398931, -12.5312677285,  -0.0041771908)
 A2 = (  -0.0061433688, -12.5384786021,  -0.0005251799)
 A3 = (   0.0058959275,  -0.0002004713, -19.9803548142)

Analysis of symmetry for initial positions (statically):
 Subroutine PRICEL returns:
 Original cell was already a primitive cell.

 Routine SETGRP: Setting up the symmetry group for a
 triclinic supercell.

 Subroutine GETGRP returns: Found  1 space group operations
 (whereof  1 operations were pure point group operations)
 out of a pool of  2 trial point group operations.

The static configuration has the point symmetry C_1 .

Analysis of symmetry for dynamics (positions and initial velocities):
 Subroutine PRICEL returns:
 Original cell was already a primitive cell.

[...]

The dynamic configuration has the point symmetry C_1 .

Analysis of structural, dynamic, and magnetic symmetry:
 Subroutine PRICEL returns:
 Original cell was already a primitive cell.

 Routine SETGRP: Setting up the symmetry group for a
 triclinic supercell.

 Subroutine GETGRP returns: Found  1 space group operations
 (whereof  1 operations were pure point group operations)
 out of a pool of  2 trial point group operations.

The magnetic configuration has the point symmetry C_1 .

 Subroutine INISYM returns: Found  1 space group operations
 (whereof  1 operations are pure point group operations),
 and found     1 'primitive' translations

 KPOINTS: KPOINTS created by Atomic Simulation Env

Automatic generation of k-mesh.
Space group operators:
 irot       det(A)        alpha          n_x          n_y          n_z        tau_x        tau_y        tau_z
    1     1.000000     0.000000     1.000000     0.000000     0.000000     0.000000     0.000000     0.000000

 Subroutine IBZKPT returns following result:

 Found      2 irreducible k-points:

 Following reciprocal coordinates:
            Coordinates               Weight
  0.250000  0.250000  0.000000      2.000000
 -0.250000  0.250000  0.000000      2.000000

 Following cartesian coordinates:
            Coordinates               Weight
  0.019703  0.019929  0.000006      2.000000
 -0.019726  0.019948 -0.000006      2.000000

 Subroutine IBZKPT_HF returns following result:

 Found      4 k-points in 1st BZ
 the following      4 k-points will be used (e.g. in the exchange kernel)
 Following reciprocal coordinates:   # in IRBZ
  0.250000  0.250000  0.000000    0.25000000   1 t-inv F
 -0.250000  0.250000  0.000000    0.25000000   2 t-inv F
 -0.250000 -0.250000 -0.000000    0.25000000   1 t-inv T
  0.250000 -0.250000  0.000000    0.25000000   2 t-inv T

 SYSTEM =  unknown system
 POSCAR =   C  N Cu Fe

 Startparameter for this run:
   NWRITE =      2    write-flag & timer
   PREC   = accura    normal or accurate (medium, high low for compatibility)
   ISTART =      1    job   : 0-new  1-cont  2-samecut
   ICHARG =      0    charge: 1-file 2-atom 10-const
   ISPIN  =      2    spin polarized calculation?
   LNONCOLLINEAR =      F non collinear calculations
   LSORBIT =      F    spin-orbit coupling
   INIWAV =      1    electr: 0-lowe 1-rand  2-diag
   LASPH  =      T    aspherical Exc in radial PAW
   METAGGA=      F    non-selfconsistent MetaGGA calc.

 Electronic Relaxation 1
   ENCUT  =  500.0 eV  36.75 Ry    6.06 a.u.  23.12 22.86 36.43*2*pi/ulx,y,z
   ENINI  =  500.0     initial cutoff
   ENAUG  =  644.9 eV  augmentation charge cutoff
   NELM   =    250;   NELMIN=  2; NELMDL=  0     # of ELM steps
   EDIFF  = 0.1E-03   stopping-criterion for ELM
   LREAL  =      F    real-space projection
   NLSPLINE    = F    spline interpolate recip. space projectors
   LCOMPAT=      F    compatible to vasp.4.4
   GGA_COMPAT  = T    GGA compatible to vasp.4.4-vasp.4.6
   LMAXPAW     = -100 max onsite density
   LMAXMIX     =    2 max onsite mixed and CHGCAR
   VOSKOWN=      0    Vosko Wilk Nusair interpolation
   ROPT   =    0.00000   0.00000   0.00000   0.00000
 Ionic relaxation
   EDIFFG = -.3E-01   stopping-criterion for IOM
   NSW    =      0    number of steps for IOM
   NBLOCK =      1;   KBLOCK =      1    inner block; outer block
   IBRION =     -1    ionic relax: 0-MD 1-quasi-New 2-CG
   NFREE  =      1    steps in history (QN), initial steepest desc. (CG)
   ISIF   =      2    stress and relaxation
   IWAVPR =     10    prediction:  0-non 1-charg 2-wave 3-comb
   ISYM   =      3    0-nonsym 1-usesym 2-fastsym
   LCORR  =      T    Harris-Foulkes like correction to forces

   POTIM  = 0.5000    time-step for ionic-motion
   TEIN   =    0.0    initial temperature
   TEBEG  =    0.0;   TEEND  =   0.0 temperature during run
   SMASS  =  -3.00    Nose mass-parameter (am)
   estimated Nose-frequenzy (Omega)   =  0.10E-29 period in steps =****** mass=  -0.367E-26a.u.
   SCALEE = 1.0000    scale energy and forces
   NPACO  =    256;   APACO  = 16.0  distance and # of slots for P.C.
   PSTRESS=    0.0 pullay stress

  Mass of Ions in am
   POMASS =  12.01 14.00 63.55 55.85
  Ionic Valenz
   ZVAL   =   4.00  5.00 11.00  8.00
  Atomic Wigner-Seitz radii
  virtual crystal weights
   VCA    =   1.00  1.00  1.00  1.00
   NELECT =     249.0000    total number of electrons
   NUPDOWN=      -1.0000    fix difference up-down

 DOS related values:
   EMIN   =  10.00;   EMAX   =-10.00  energy-range for DOS
   EFERMI =   0.00
   ISMEAR =     0;   SIGMA  =   0.10  broadening in eV -4-tet -1-fermi 0-gaus

 Electronic relaxation 2 (details)
   IALGO  =     53    algorithm
   LDIAG  =      T    sub-space diagonalisation (order eigenvalues)
   LSUBROT=      F    optimize rotation matrix (better conditioning)
   TURBO    =      0    0=normal 1=particle mesh
   IRESTART =      0    0=no restart 2=restart with 2 vectors
   NREBOOT  =      0    no. of reboots
   NMIN     =      0    reboot dimension
   EREF     =   0.00    reference energy to select bands
   IMIX   =      4    mixing-type and parameters
     AMIX     =   0.40;   BMIX     =  1.00
     AMIX_MAG =   1.60;   BMIX_MAG =  1.00
     AMIN     =   0.10
     WC   =   100.;   INIMIX=   1;  MIXPRE=   1;  MAXMIX= -45

 Intra band minimization:
   WEIMIN = 0.0000     energy-eigenvalue tresh-hold
[...]
   35        0.860   1.748   0.000   2.608
   36        0.849   1.691   0.000   2.540
   37        0.860   1.754   0.000   2.614
   38        0.856   1.739   0.000   2.595
   39        0.851   1.712   0.000   2.563
   40        0.846   1.692   0.000   2.539
   41        0.843   1.723   0.000   2.565
   42        0.851   1.709   0.000   2.560
   43        0.857   1.742   0.000   2.599
   44        0.866   1.763   0.000   2.628
   45        0.859   1.754   0.000   2.612
   46        0.862   1.757   0.000   2.620
   47        0.865   1.765   0.000   2.629
   48        0.867   1.771   0.000   2.638
   49        0.866   1.774   0.000   2.641
   50        0.866   1.769   0.000   2.635
   51        1.222   2.662   0.000   3.884
   52        1.238   2.689   0.000   3.927
   53        1.228   2.677   0.000   3.906
   54        1.228   2.667   0.000   3.895
   55        1.225   2.681   0.000   3.906
   56        1.214   2.664   0.000   3.878
   57        0.438   0.449   9.255  10.142
   58        0.427   0.512   6.282   7.220
tot         51.372 105.003  15.537 171.911

 magnetization (x)

[...]

  FORCE on cell =-STRESS in cart. coord.  units (eV):
  Direction    XX          YY          ZZ          XY          YZ          ZX
  Alpha Z   102.59828   102.59828   102.59828
  Ewald   49831.78457 49709.87319-58742.55819     9.00535     5.35601   -29.75545
  Hartree 49352.51964 49367.86969-48567.59710    12.72334     2.92427   -26.27730
  E(xc)    -739.96646  -740.59910  -754.99851    -0.04020     0.12678    -0.01883
  Local  ************************104111.83447   -27.20439    -6.72084    55.63898
  n-local   -96.09304   -97.40772   -88.38035    -3.45075    -0.62497     0.09525
  augment   100.90776   102.48055   109.98016    -1.89995    -0.52782    -0.01027
  Kinetic  3666.71822  3703.33527  4224.15801     8.18257    -0.68656     0.29555
  Fock     -412.53047  -413.63033  -395.39877     2.74899     0.17846     0.05167
  Total     -44.53253   -44.31943    -0.36200     0.06495     0.02531     0.01960
  in kB     -22.45883   -22.35136    -0.18256     0.03275     0.01277     0.00988

 VOLUME and BASIS-vectors are now :
  energy-cutoff  :      500.00
  volume of cell :     3176.88
      direct lattice vectors                 reciprocal lattice vectors
    12.680983262  0.007210874 -0.003652011     0.078858267 -0.000038638  0.000023270
     0.006143369 12.538478602  0.000525180    -0.000045352  0.079754515 -0.000000814
    -0.005895927  0.000200471 19.980354814     0.000014415 -0.000002103  0.050049166

  length of vectors
    12.680985838 12.538480118 19.980355685     0.078858280  0.079754528  0.050049168

 FORCES acting on ions:
    Electron-Ion                     Ewald-Force                    Non-Local-Force
   0.858E+01 0.285E+01 0.262E+00   -.872E+01 -.306E+01 -.263E+00   0.122E+00 0.257E+00 0.271E-02
   0.697E+01 0.106E+01 0.202E+00   -.710E+01 -.112E+01 -.202E+00   0.154E+00 0.649E-01 -.405E-03
   0.146E+02 -.102E+01 0.545E-01   -.147E+02 0.109E+01 -.526E-01   0.116E+00 -.151E-01 -.184E-02
   0.118E+02 0.120E+02 0.369E+00   -.120E+02 -.124E+02 -.363E+00   0.836E-01 0.365E+00 -.405E-02
   0.220E+02 0.203E+02 -.283E+00   -.227E+02 -.211E+02 0.281E+00   0.539E+00 0.635E+00 -.167E-04
   0.254E+02 0.611E+00 -.549E-01   -.259E+02 -.232E+00 0.681E-01   0.459E+00 -.263E+00 -.131E-01
   0.237E+02 0.650E+01 -.134E-01   -.241E+02 -.641E+01 0.314E-02   0.521E+00 -.121E+00 0.911E-02
   0.288E+02 0.502E+02 -.839E+00   -.308E+02 -.529E+02 0.887E+00   0.210E+01 0.302E+01 -.494E-01
   0.278E+02 0.312E+01 0.295E+00   -.278E+02 -.320E+01 -.301E+00   -.321E-01 -.210E-01 0.516E-02
   0.554E+02 -.616E+01 -.205E+00   -.591E+02 0.663E+01 0.209E+00   0.362E+01 -.574E+00 -.589E-02
   0.209E+02 -.199E+01 -.242E-01   -.212E+02 0.180E+01 0.302E-01   0.343E+00 0.211E+00 -.514E-02
   0.706E+02 0.997E+01 0.267E+00   -.739E+02 -.104E+02 -.262E+00   0.350E+01 0.555E+00 -.547E-02
   0.254E+01 -.608E+02 -.282E+00   -.152E+01 0.635E+02 0.285E+00   -.113E+01 -.275E+01 -.248E-02
   0.121E+02 -.223E+02 -.154E+00   -.119E+02 0.227E+02 0.152E+00   -.143E+00 -.411E+00 0.196E-02
   0.390E+01 -.366E+01 -.132E-01   -.405E+01 0.375E+01 0.118E-01   0.908E-01 -.112E+00 0.125E-02
   0.208E+02 -.961E+01 0.709E-01   -.210E+02 0.965E+01 -.746E-01   0.244E+00 -.608E-01 0.475E-02
   0.916E+01 -.932E+01 -.943E-01   -.900E+01 0.946E+01 0.965E-01   -.105E+00 -.194E+00 -.402E-02
   -.112E+02 0.407E+01 0.151E+01   0.110E+02 -.421E+01 -.152E+01   0.145E+00 0.186E+00 0.763E-02
   0.193E+01 0.197E+02 0.102E+01   -.171E+01 -.202E+02 -.103E+01   -.823E-01 0.570E+00 0.139E-01
   -.677E-01 0.486E+01 0.104E+01   0.326E+00 -.512E+01 -.104E+01   -.216E+00 0.236E+00 -.158E-03
   -.125E+02 0.160E+02 0.157E+01   0.124E+02 -.166E+02 -.158E+01   -.325E-02 0.551E+00 0.181E-01
   -.787E+01 0.391E+02 -.139E+00   0.653E+01 -.420E+02 0.116E+00   0.143E+01 0.296E+01 0.310E-01
   -.114E+02 0.443E+02 0.682E+00   0.128E+02 -.472E+02 -.694E+00   -.142E+01 0.284E+01 0.151E-01
   -.406E+02 -.384E+02 0.633E+00   0.428E+02 0.415E+02 -.593E+00   -.229E+01 -.328E+01 -.368E-01
   0.307E+01 -.580E+02 -.103E+01   -.499E+01 0.611E+02 0.101E+01   0.199E+01 -.302E+01 0.598E-02
   -.240E+02 -.189E+02 0.148E+01   0.248E+02 0.199E+02 -.151E+01   -.641E+00 -.815E+00 0.339E-01
   -.137E+02 -.148E+02 0.448E+00   0.138E+02 0.152E+02 -.445E+00   -.426E-01 -.479E+00 -.528E-02
   -.257E+01 -.694E+01 0.197E+00   0.228E+01 0.720E+01 -.197E+00   0.232E+00 -.226E+00 -.172E-02
   -.505E+01 -.237E+02 -.165E+00   0.478E+01 0.242E+02 0.162E+00   0.121E+00 -.562E+00 0.471E-03
   -.857E+01 -.407E+01 0.681E+00   0.871E+01 0.432E+01 -.684E+00   -.114E+00 -.317E+00 -.502E-03
   -.737E+01 -.815E+00 0.136E+00   0.735E+01 0.881E+00 -.138E+00   -.275E-01 -.261E-01 -.891E-03
   -.190E+02 0.387E+01 0.806E+00   0.193E+02 -.401E+01 -.787E+00   -.331E+00 0.140E+00 -.170E-01
   -.234E+01 0.134E+01 0.286E+00   0.251E+01 -.143E+01 -.288E+00   -.132E+00 0.138E+00 -.139E-02
   0.748E+01 -.246E+01 0.605E+00   -.758E+01 0.258E+01 -.606E+00   0.777E-01 -.122E+00 0.931E-03
   -.520E+01 -.292E+01 0.132E+01   0.547E+01 0.321E+01 -.133E+01   -.281E+00 -.284E+00 0.108E-01
   -.521E+02 -.983E+01 0.252E+00   0.556E+02 0.103E+02 -.252E+00   -.373E+01 -.515E+00 0.258E-01
   -.154E+02 -.190E+01 0.168E+01   0.159E+02 0.188E+01 -.168E+01   -.436E+00 0.116E-02 0.122E-01
   0.534E+01 -.176E+01 0.602E+00   -.553E+01 0.213E+01 -.598E+00   0.169E+00 -.322E+00 -.743E-03
   0.459E+01 -.187E+01 0.313E+00   -.457E+01 0.199E+01 -.316E+00   0.588E-01 -.125E+00 0.476E-02
   -.466E+02 0.122E+02 0.280E+00   0.505E+02 -.126E+02 -.329E+00   -.390E+01 0.451E+00 0.368E-01
   -.203E+02 0.296E+01 -.256E+00   0.204E+02 -.279E+01 0.256E+00   -.181E+00 -.129E+00 -.222E-02
   0.825E+00 0.422E+01 0.246E+00   -.598E+00 -.439E+01 -.246E+00   -.242E+00 0.140E+00 0.224E-02
   -.329E+01 0.463E+01 0.715E-02   0.359E+01 -.499E+01 -.205E-02   -.266E+00 0.347E+00 -.443E-02
   -.223E+02 -.486E+01 0.104E+01   0.228E+02 0.482E+01 -.106E+01   -.615E+00 0.665E-01 0.165E-01
   -.212E+02 0.107E+01 0.468E+00   0.218E+02 -.129E+01 -.483E+00   -.599E+00 0.129E+00 0.170E-01
   0.104E+02 0.257E+01 -.809E-01   -.107E+02 -.283E+01 0.812E-01   0.237E+00 0.257E+00 0.118E-03
   -.529E+01 0.138E+00 -.257E+00   0.541E+01 -.259E+00 0.257E+00   -.108E+00 0.103E+00 -.341E-02
   -.141E+02 -.209E+01 0.189E+00   0.142E+02 0.204E+01 -.192E+00   -.100E+00 -.988E-02 -.246E-02
   -.501E+01 -.225E+01 0.116E+00   0.517E+01 0.237E+01 -.115E+00   -.170E+00 -.987E-01 -.432E-02
   0.940E+01 -.171E+01 -.205E+00   -.934E+01 0.166E+01 0.205E+00   -.288E-02 0.228E-01 -.258E-02
   0.686E+02 0.161E+01 0.237E+00   -.592E+02 0.162E+02 -.434E+00   -.880E+01 -.170E+02 0.186E+00
   0.596E+02 -.606E+00 0.119E+01   -.478E+02 -.194E+02 -.127E+01   -.113E+02 0.189E+02 0.715E-01
   -.112E+02 -.106E+01 0.385E+00   0.209E+02 0.183E+02 -.380E+00   -.948E+01 -.165E+02 -.178E-01
   -.327E+02 -.230E+02 -.811E+01   0.230E+02 0.389E+02 0.880E+01   0.948E+01 -.153E+02 -.703E+00
   -.492E+02 0.343E+02 0.351E+01   0.409E+02 -.511E+02 -.382E+01   0.803E+01 0.162E+02 0.322E+00
   -.386E+02 -.210E+02 -.257E+01   0.299E+02 0.642E+01 0.271E+01   0.835E+01 0.138E+02 -.141E+00
   0.124E+02 0.460E+02 0.564E+01   -.138E+02 -.477E+02 -.560E+01   0.113E+01 0.163E+01 -.521E-01
   -.335E+02 0.435E+01 -.156E+02   0.363E+02 -.666E+01 0.151E+02   -.319E+01 0.234E+01 0.463E+00
   0.700E+01 -.386E+01 -.246E+00   -.711E-13 -.284E-13 -.178E-14   -.674E+01 0.357E+01 0.232E+00

 POSITION                                       TOTAL-FORCE (eV/Angst)
      2.81221     12.52839      9.98971        -0.018037      0.060055      0.002161
      0.69765      1.25500      9.98959         0.022374      0.009127     -0.000158
      1.39204      0.00122      9.98980         0.073118      0.047454     -0.000044
      3.51543      1.21151      9.98918        -0.068636      0.018678      0.002290
      2.83006      2.45317      9.99137        -0.076550     -0.108993     -0.001914
      0.73530      3.76755      9.99065         0.014082      0.099784     -0.000531
      1.41024      2.49790      9.99052         0.097120     -0.038416     -0.000725
      3.57478      3.66390      9.99319         0.189710      0.416083     -0.003527
      0.81158      6.24897      9.98986        -0.011342     -0.098633      0.000367
      1.53057      4.97789      9.99095         0.098353     -0.143533     -0.002641
      0.72348      8.77859      9.99059        -0.014400      0.039092      0.000615
      1.48610      7.55125      9.98948         0.413390      0.159081     -0.000912
      3.51184      8.82772      9.99080        -0.183388     -0.179315      0.000425
      2.82210     10.06166      9.99067         0.055489      0.009051     -0.000058
      0.70473     11.28683      9.99071        -0.066701     -0.024486     -0.000065
      1.40509     10.04017      9.99045         0.005881     -0.022664      0.001378
      3.52072     11.29397      9.99015         0.058398     -0.060774     -0.002066
      7.05215     12.51861      9.98492        -0.039525      0.054087      0.004229
      4.93113      1.20254      9.98761         0.133395      0.071603      0.003622
      5.64430     12.51138      9.98659         0.035857     -0.005605      0.002833
      7.74367      1.21911      9.98594        -0.091001     -0.023106      0.010940
      7.04158      2.44081      9.99414         0.164832      0.206699      0.010268
      5.61972      2.43146      9.99093        -0.155256      0.100433      0.004468
      7.01496      7.60567      9.98912        -0.172487     -0.355633      0.001326
      4.94669      8.81421      9.99277         0.175974     -0.023339     -0.004934
      7.74838      8.82081      9.98527         0.062388      0.094307      0.004844
      7.05329     10.05743      9.98717         0.080625     -0.020708     -0.002716
      4.92967     11.28403      9.98888        -0.054704      0.020888     -0.001678
      5.63517     10.04880      9.98987        -0.147291     -0.109945     -0.002359
      7.75971     11.28533      9.98599         0.018549     -0.081569     -0.003331
     11.27278      0.00844      9.98618        -0.061168      0.038424     -0.002713
      9.16026      1.24694      9.98583        -0.009100      0.005151      0.001308
      9.86641     12.53960      9.98661         0.046691      0.061132     -0.003550
     11.95838      1.27061      9.98495        -0.007823     -0.011720     -0.000211
     11.25991      2.53173      9.98385        -0.034358     -0.007513      0.004336
      9.06479      3.75128      9.99284        -0.430969     -0.111171      0.027408
      9.82980      2.51862      9.98506         0.055587     -0.023403      0.011011
     11.97068      3.78887      9.98562        -0.013630      0.032063      0.003123
     11.24017      5.03210      9.98718         0.096210     -0.017267      0.002107
      9.06848      6.30799      9.98854        -0.204351      0.087677     -0.010673
      9.76586      5.03540      9.99039         0.000695      0.044502     -0.002547
     12.01987      6.25772      9.98677        -0.038487     -0.025070      0.002110
     11.28848      7.50472      9.98738         0.011516      0.004874      0.000435
      9.16761      8.78511      9.98525        -0.118346      0.032883      0.004618
      9.84886      7.51867      9.98680         0.006455     -0.082079      0.002682
     11.98304      8.76907      9.98748         0.021323      0.013649      0.000458
     11.28713     10.02772      9.98785        -0.007573     -0.012057     -0.002840
      9.17306     11.28288      9.98676        -0.074095     -0.052840     -0.005054
      9.86949     10.03185      9.98693        -0.012767      0.013199     -0.003119
     11.97429     11.28852      9.98761         0.061513     -0.031715     -0.002553
      2.94023      4.87283      9.99035        -0.133272     -0.620335      0.006834
      2.84218      7.63527      9.98809        -0.477933      0.559890      0.002581
      4.96095      3.64918      9.99341        -0.613483     -0.666626     -0.015172
      7.68164      3.67132     10.00907         0.666759     -0.626090     -0.077595
      7.66212      6.39371      9.98650         0.474185      0.865954      0.034467
      5.63421      7.59599      9.99491         0.430503      0.316031     -0.010490
      4.25937      6.28259      9.98697        -0.047085      0.166929      0.006357
      6.34344      5.03413     10.01345        -0.187215     -0.064177      0.004581
    total drift:                               -0.007949      0.007986     -0.001214

  FREE ENERGIE OF THE ION-ELECTRON SYSTEM (eV)
  free  energy   TOTEN  =      -603.45674608 eV

  energy  without entropy=     -603.44103207  energy(sigma->0) =     -603.44888908

 stress matrix after NEB project (eV)
    -44.53253      0.06427      0.01960
      0.06495    -44.31943      0.02800
      0.01763      0.02531     -0.36200
  FORCES: max atom, RMS     0.987885    0.300380
  FORCE total and by dimension    2.287629    0.865954
  Stress total and by dimension   62.829135   44.532535
 writing wavefunctions
 vacuum level on the upper side and lower side of the slab         1.483         1.483

 total charge

[...]

 magnetization (x)

# of ion       s       p       d       tot
    1       -0.000  -0.009   0.000  -0.009
    2       -0.000  -0.003   0.000  -0.003
    3        0.000  -0.002   0.000  -0.001
    4        0.000  -0.001   0.000  -0.001
    5       -0.001  -0.012   0.000  -0.013
    6       -0.001  -0.014   0.000  -0.015
    7        0.000   0.001   0.000   0.001
    8        0.000  -0.003   0.000  -0.003
    9       -0.001  -0.014   0.000  -0.015
   10        0.000  -0.002   0.000  -0.002
   11       -0.001  -0.014   0.000  -0.015
   12        0.000  -0.003   0.000  -0.002
   13        0.001  -0.002   0.000  -0.002
   14       -0.000  -0.004   0.000  -0.004
   15       -0.001  -0.011   0.000  -0.012
   16        0.000  -0.001   0.000  -0.001
   17        0.000  -0.001   0.000  -0.001
   18       -0.000  -0.006   0.000  -0.006
   19        0.000  -0.001   0.000  -0.001
   20       -0.000  -0.005   0.000  -0.005
   21       -0.000  -0.001   0.000  -0.001
   22       -0.000  -0.007   0.000  -0.007
   23       -0.000  -0.009   0.000  -0.009
   24        0.000  -0.006   0.000  -0.006
   25       -0.001  -0.023   0.000  -0.024
   26       -0.000  -0.007   0.000  -0.007
   27       -0.001  -0.010   0.000  -0.010
   28       -0.001  -0.011   0.000  -0.012
   29        0.001   0.006   0.000   0.007
   30       -0.000  -0.004   0.000  -0.004
   31       -0.000  -0.009   0.000  -0.010
   32       -0.000  -0.009   0.000  -0.009
   33       -0.000  -0.006   0.000  -0.006
   34        0.000  -0.001   0.000  -0.001
   35       -0.000  -0.007   0.000  -0.008
   36       -0.000  -0.012   0.000  -0.012
   37       -0.000  -0.007   0.000  -0.007
   38       -0.000  -0.011   0.000  -0.011
   39       -0.000  -0.002   0.000  -0.002
   40       -0.001  -0.012   0.000  -0.013
   41        0.000  -0.003   0.000  -0.003
   42        0.001   0.004   0.000   0.004
   43       -0.001  -0.020   0.000  -0.021
   44       -0.000  -0.003   0.000  -0.003
   45       -0.000  -0.009   0.000  -0.010
   46        0.000  -0.001   0.000  -0.001
   47       -0.000  -0.008   0.000  -0.008
   48       -0.000  -0.006   0.000  -0.006
   49        0.000   0.001   0.000   0.002
   50        0.000  -0.003   0.000  -0.003
   51       -0.003  -0.015   0.000  -0.018
   52       -0.005  -0.058   0.000  -0.063
   53       -0.005  -0.044   0.000  -0.049
   54       -0.005  -0.062   0.000  -0.066
   55       -0.005  -0.024   0.000  -0.029
   56       -0.001  -0.028   0.000  -0.029
   57        0.009   0.011  -0.148  -0.128
   58        0.042   0.027   1.959   2.028
tot          0.018  -0.496   1.811   1.333