 vasp.5.4.4.18Apr17-6-g9f103f2a35 (build Feb 25 2019 10:51:38) complex

 executed on             LinuxIFC date 2022.01.30  02:50:49

 INCAR:
 POTCAR:    PAW_PBE C 08Apr2002
 POTCAR:    PAW_PBE N 08Apr2002
 POTCAR:    PAW_PBE Zn 06Sep2000
 POTCAR:    PAW_PBE Fe 06Sep2000

 POTCAR:    PAW_PBE C 08Apr2002
   VRHFIN =C: s2p2

   TITEL  = PAW_PBE C 08Apr2002
   POMASS =   12.011; ZVAL   =    4.000    mass and valenz
   ENMAX  =  400.000; ENMIN  =  300.000 eV

 POTCAR:    PAW_PBE N 08Apr2002
   VRHFIN =N: s2p3

   TITEL  = PAW_PBE N 08Apr2002
   POMASS =   14.001; ZVAL   =    5.000    mass and valenz
   ENMAX  =  400.000; ENMIN  =  300.000 eV

 POTCAR:    PAW_PBE Zn 06Sep2000
   VRHFIN =Zn: d10 p2

   TITEL  = PAW_PBE Zn 06Sep2000
   POMASS =   65.390; ZVAL   =   12.000    mass and valenz
   ENMAX  =  276.723; ENMIN  =  207.542 eV

 POTCAR:    PAW_PBE Fe 06Sep2000
   VRHFIN =Fe:  d7 s1

   TITEL  = PAW_PBE Fe 06Sep2000
   POMASS =   55.847; ZVAL   =    8.000    mass and valenz
   ENMAX  =  267.882; ENMIN  =  200.911 eV

  PAW_PBE C 08Apr2002                   :
  PAW_PBE N 08Apr2002                   :
  PAW_PBE Zn 06Sep2000                  :
  PAW_PBE Fe 06Sep2000                  :

 POSCAR:  C  N Zn Fe
  positions in cartesian coordinates
 exchange correlation table for  LEXCH =        8
   RHO(1)=    0.500       N(1)  =     2000
   RHO(2)=  100.500       N(2)  =     4000

 VTST: version 3.2, (02/03/18)

 CHAIN: initializing optimizer

 OPT: Using VASP Conjugate-Gradient optimizer
 CHAIN: Read ICHAIN            0

 POSCAR:  C  N Zn Fe
  positions in cartesian coordinates

 ion  position               nearest neighbor table
   1  0.222  0.998  0.500-  17 1.42   4 1.42   3 1.42
   2  0.055  0.099  0.500-   7 1.43  34 1.43   3 1.44
   3  0.110  0.999  0.500-   1 1.42  15 1.43   2 1.44
   4  0.278  0.097  0.500-   5 1.42  19 1.42   1 1.42
   5  0.222  0.195  0.500-   4 1.42   8 1.42   7 1.43
   6  0.056  0.299  0.500-  38 1.44   7 1.44  10 1.44
   7  0.110  0.198  0.500-   2 1.43   5 1.43   6 1.44
   8  0.279  0.292  0.500-  53 1.38   5 1.42  51 1.43
   9  0.062  0.499  0.500-  10 1.46  42 1.46  12 1.46
  10  0.116  0.396  0.500-  53 1.38   6 1.44   9 1.46
  11  0.057  0.700  0.500-  46 1.42  16 1.43  12 1.44
  12  0.116  0.602  0.500-  54 1.37  11 1.44   9 1.46
  13  0.276  0.703  0.500-  54 1.37  14 1.41  25 1.46
  14  0.222  0.802  0.500-  13 1.41  17 1.42  16 1.42
  15  0.055  0.900  0.500-  50 1.42  16 1.43   3 1.43
  16  0.111  0.800  0.500-  14 1.42  15 1.43  11 1.43
  17  0.278  0.900  0.500-  28 1.42   1 1.42  14 1.42
  18  0.556  0.998  0.500-  30 1.42  20 1.42  21 1.43
  19  0.389  0.096  0.500-   4 1.42  20 1.42  23 1.43
  20  0.444  0.998  0.500-  18 1.42  19 1.42  28 1.43
  21  0.611  0.098  0.500-  22 1.41  32 1.42  18 1.43
  22  0.556  0.195  0.500-  55 1.39  21 1.41  23 1.44
  23  0.443  0.196  0.500-  51 1.42  19 1.43  22 1.44
  24  0.559  0.605  0.500-  56 1.38  52 1.42  26 1.42  58 2.55
  25  0.390  0.699  0.500-  29 1.44  52 1.44  13 1.46
  26  0.613  0.704  0.500-  27 1.42  24 1.42  44 1.42
  27  0.556  0.801  0.500-  26 1.42  29 1.43  30 1.43
  28  0.389  0.899  0.500-  17 1.42  20 1.43  29 1.43
  29  0.444  0.799  0.500-  27 1.43  28 1.43  25 1.44
  30  0.611  0.900  0.500-  18 1.42  48 1.42  27 1.43
  31  0.889  0.000  0.500-  33 1.42  34 1.43  50 1.44
  32  0.722  0.099  0.500-  21 1.42  33 1.43  37 1.43
  33  0.778  1.000  0.500-  31 1.42  32 1.43  48 1.43
  34  0.943  0.100  0.500-   2 1.43  31 1.43  35 1.44
  35  0.887  0.201  0.500-  37 1.44  38 1.44  34 1.44
  36  0.715  0.300  0.500-  55 1.40  37 1.45  41 1.47
  37  0.775  0.201  0.500-  32 1.43  35 1.44  36 1.45
  38  0.943  0.300  0.500-   6 1.44  35 1.44  39 1.44
  39  0.887  0.401  0.500-  38 1.44  42 1.45  41 1.46
  40  0.720  0.503  0.500-  56 1.37  45 1.44  41 1.44
  41  0.772  0.401  0.500-  40 1.44  39 1.46  36 1.47
  42  0.947  0.499  0.500-  43 1.44  39 1.45   9 1.46
  43  0.891  0.599  0.500-  45 1.43  46 1.44  42 1.44
  44  0.725  0.702  0.500-  26 1.42  49 1.42  45 1.44
  45  0.779  0.601  0.500-  43 1.43  40 1.44  44 1.44
  46  0.945  0.700  0.500-  11 1.42  47 1.44  43 1.44
  47  0.890  0.800  0.500-  49 1.42  50 1.43  46 1.44
  48  0.723  0.900  0.500-  30 1.42  49 1.43  33 1.43
  49  0.779  0.801  0.500-  47 1.42  44 1.42  48 1.43
  50  0.944  0.900  0.500-  15 1.42  47 1.43  31 1.44
  51  0.391  0.296  0.500-  23 1.42   8 1.43  58 2.03
  52  0.448  0.599  0.500-  24 1.42  25 1.44  57 2.00  58 2.48
  53  0.223  0.388  0.500-  10 1.38   8 1.38  57 1.92
  54  0.222  0.609  0.500-  13 1.37  12 1.37  57 1.97
  55  0.605  0.294  0.500-  22 1.39  36 1.40  58 1.94
  56  0.613  0.509  0.500-  40 1.37  24 1.38  58 1.87
  57  0.329  0.496  0.500-  53 1.92  54 1.97  52 2.00  58 2.47
  58  0.504  0.410  0.500-  56 1.87  55 1.94  51 2.03  57 2.47  52 2.48  24 2.55

  LATTYP: Found a triclinic cell.
 ALAT       =    17.8373247840
 B/A-ratio  =     0.7012459864
 C/A-ratio  =     1.1149341672
 COS(alpha) =     0.0000955331
 COS(beta)  =     0.0004170240
 COS(gamma) =     0.6981391227

  Lattice vectors:

 A1 = (  12.7326571210, -12.4919813367,   0.0006091457)
 A2 = (  -0.0383016557, -12.5082937711,  -0.0000083036)
 A3 = (   0.0106867969,  -0.0019194409, -19.8874398894)

Analysis of symmetry for initial positions (statically):
 Subroutine PRICEL returns:
 Original cell was already a primitive cell.

 Routine SETGRP: Setting up the symmetry group for a
 triclinic supercell.

 Subroutine GETGRP returns: Found  1 space group operations
 (whereof  1 operations were pure point group operations)
 out of a pool of  2 trial point group operations.

The static configuration has the point symmetry C_1 .

Analysis of symmetry for dynamics (positions and initial velocities):
 Subroutine PRICEL returns:
 Original cell was already a primitive cell.

[...]

The dynamic configuration has the point symmetry C_1 .

Analysis of structural, dynamic, and magnetic symmetry:
 Subroutine PRICEL returns:
 Original cell was already a primitive cell.

 Routine SETGRP: Setting up the symmetry group for a
 triclinic supercell.

 Subroutine GETGRP returns: Found  1 space group operations
 (whereof  1 operations were pure point group operations)
 out of a pool of  2 trial point group operations.

The magnetic configuration has the point symmetry C_1 .

 Subroutine INISYM returns: Found  1 space group operations
 (whereof  1 operations are pure point group operations),
 and found     1 'primitive' translations

 KPOINTS: KPOINTS created by Atomic Simulation Env

Automatic generation of k-mesh.
Space group operators:
 irot       det(A)        alpha          n_x          n_y          n_z        tau_x        tau_y        tau_z
    1     1.000000     0.000000     1.000000     0.000000     0.000000     0.000000     0.000000     0.000000

 Subroutine IBZKPT returns following result:

 Found      1 irreducible k-points:

 Following reciprocal coordinates:
            Coordinates               Weight
  0.000000  0.000000  0.000000      1.000000

 Following cartesian coordinates:
            Coordinates               Weight
  0.000000  0.000000  0.000000      1.000000

 Subroutine IBZKPT_HF returns following result:

 Found      1 k-points in 1st BZ
 the following      1 k-points will be used (e.g. in the exchange kernel)
 Following reciprocal coordinates:   # in IRBZ
  0.000000  0.000000  0.000000    1.00000000   1 t-inv F

 SYSTEM =  unknown system
 POSCAR =   C  N Zn Fe

 Startparameter for this run:
   NWRITE =      2    write-flag & timer
   PREC   = accura    normal or accurate (medium, high low for compatibility)
   ISTART =      1    job   : 0-new  1-cont  2-samecut
   ICHARG =      0    charge: 1-file 2-atom 10-const
   ISPIN  =      2    spin polarized calculation?
   LNONCOLLINEAR =      F non collinear calculations
   LSORBIT =      F    spin-orbit coupling
   INIWAV =      1    electr: 0-lowe 1-rand  2-diag
   LASPH  =      T    aspherical Exc in radial PAW
   METAGGA=      F    non-selfconsistent MetaGGA calc.

 Electronic Relaxation 1
   ENCUT  =  500.0 eV  36.75 Ry    6.06 a.u.  23.28 22.81 36.26*2*pi/ulx,y,z
   ENINI  =  500.0     initial cutoff
   ENAUG  =  644.9 eV  augmentation charge cutoff
   NELM   =    250;   NELMIN=  2; NELMDL=  0     # of ELM steps
   EDIFF  = 0.1E-03   stopping-criterion for ELM
   LREAL  =      F    real-space projection
   NLSPLINE    = F    spline interpolate recip. space projectors
   LCOMPAT=      F    compatible to vasp.4.4
   GGA_COMPAT  = T    GGA compatible to vasp.4.4-vasp.4.6
   LMAXPAW     = -100 max onsite density
   LMAXMIX     =    2 max onsite mixed and CHGCAR
   VOSKOWN=      0    Vosko Wilk Nusair interpolation
   ROPT   =    0.00000   0.00000   0.00000   0.00000
 Ionic relaxation
   EDIFFG = -.3E-01   stopping-criterion for IOM
   NSW    =      0    number of steps for IOM
   NBLOCK =      1;   KBLOCK =      1    inner block; outer block
   IBRION =     -1    ionic relax: 0-MD 1-quasi-New 2-CG
   NFREE  =      1    steps in history (QN), initial steepest desc. (CG)
   ISIF   =      2    stress and relaxation
   IWAVPR =     10    prediction:  0-non 1-charg 2-wave 3-comb
   ISYM   =      3    0-nonsym 1-usesym 2-fastsym
   LCORR  =      T    Harris-Foulkes like correction to forces

   POTIM  = 0.5000    time-step for ionic-motion
   TEIN   =    0.0    initial temperature
   TEBEG  =    0.0;   TEEND  =   0.0 temperature during run
   SMASS  =  -3.00    Nose mass-parameter (am)
   estimated Nose-frequenzy (Omega)   =  0.10E-29 period in steps =****** mass=  -0.373E-26a.u.
   SCALEE = 1.0000    scale energy and forces
   NPACO  =    256;   APACO  = 16.0  distance and # of slots for P.C.
   PSTRESS=    0.0 pullay stress

  Mass of Ions in am
   POMASS =  12.01 14.00 65.39 55.85
  Ionic Valenz
   ZVAL   =   4.00  5.00 12.00  8.00
  Atomic Wigner-Seitz radii
  virtual crystal weights
   VCA    =   1.00  1.00  1.00  1.00
   NELECT =     248.0000    total number of electrons
   NUPDOWN=      -1.0000    fix difference up-down

 DOS related values:
   EMIN   =  10.00;   EMAX   =-10.00  energy-range for DOS
   EFERMI =   0.00
   ISMEAR =     0;   SIGMA  =   0.10  broadening in eV -4-tet -1-fermi 0-gaus

 Electronic relaxation 2 (details)
   IALGO  =     53    algorithm
   LDIAG  =      T    sub-space diagonalisation (order eigenvalues)
   LSUBROT=      F    optimize rotation matrix (better conditioning)
   TURBO    =      0    0=normal 1=particle mesh
   IRESTART =      0    0=no restart 2=restart with 2 vectors
   NREBOOT  =      0    no. of reboots
   NMIN     =      0    reboot dimension
   EREF     =   0.00    reference energy to select bands
   IMIX   =      4    mixing-type and parameters
     AMIX     =   0.40;   BMIX     =  1.00
     AMIX_MAG =   1.60;   BMIX_MAG =  1.00
     AMIN     =   0.10
     WC   =   100.;   INIMIX=   1;  MIXPRE=   1;  MAXMIX= -45

 Intra band minimization:
   WEIMIN = 0.0000     energy-eigenvalue tresh-hold
   EBREAK =  0.16E-06  absolut break condition
   DEPER  =   0.30     relativ break condition

   TIME   =   0.20     timestep for ELM

  volume/ion in A,a.u.               =      54.77       369.63
[...]
   33        0.866   1.774   0.000   2.640
   34        0.865   1.752   0.000   2.617
   35        0.860   1.750   0.000   2.610
   36        0.845   1.684   0.000   2.529
   37        0.860   1.751   0.000   2.611
   38        0.859   1.750   0.000   2.610
   39        0.853   1.719   0.000   2.572
   40        0.858   1.719   0.000   2.577
   41        0.847   1.731   0.000   2.578
   42        0.853   1.717   0.000   2.570
   43        0.860   1.752   0.000   2.612
   44        0.864   1.775   0.000   2.639
   45        0.861   1.763   0.000   2.624
   46        0.863   1.762   0.000   2.625
   47        0.867   1.760   0.000   2.627
   48        0.864   1.770   0.000   2.634
   49        0.868   1.773   0.000   2.640
   50        0.866   1.767   0.000   2.633
   51        0.864   1.674   0.000   2.538
   52        0.840   1.682   0.000   2.522
   53        1.230   2.690   0.000   3.920
   54        1.233   2.701   0.000   3.934
   55        1.227   2.639   0.000   3.866
   56        1.232   2.704   0.000   3.936
   57        0.570   0.554   9.860  10.983
   58        0.424   0.530   6.277   7.231
tot         50.792 103.076  16.137 170.005

 magnetization (x)

[...]

  FORCE on cell =-STRESS in cart. coord.  units (eV):
  Direction    XX          YY          ZZ          XY          YZ          ZX
  Alpha Z   107.13509   107.13509   107.13509
  Ewald   48880.62441 48719.84185-57731.90450    18.68455    -0.54476     5.89545
  Hartree 48467.55632 48446.21970-47631.61225    13.08269    -0.54027     5.41034
  E(xc)    -735.67797  -736.34485  -750.23736    -0.12828    -0.00260     0.00034
  Local  -99897.11540-99745.51859102321.34858   -36.03932     1.06618   -11.30814
  n-local  -110.64359  -112.82604  -106.83443     1.95658     0.00548     0.00560
  augment    43.63860    45.84377    46.10272    -0.17932     0.01132     0.00387
  Kinetic  3581.07343  3623.30526  4106.65330     3.10783     0.00874    -0.00480
  Fock     -384.83992  -386.20421  -361.04793     0.95787    -0.00583    -0.00169
  Total     -48.24903   -38.54801    -0.39678     1.44261    -0.00175     0.00098
  in kB     -24.33326   -19.44079    -0.20011     0.72755    -0.00088     0.00049

 VOLUME and BASIS-vectors are now :
  energy-cutoff  :      500.00
  volume of cell :     3176.87
      direct lattice vectors                 reciprocal lattice vectors
    12.770958777  0.016312434  0.000617449     0.078302961 -0.000239772  0.000042100
     0.038301656 12.508293771  0.000008304    -0.000102117  0.079947268 -0.000007771
    -0.010686797  0.001919441 19.887439889    -0.000002431 -0.000000026  0.050282992

  length of vectors
    12.770969210 12.508352413 19.887442853     0.078303339  0.079947333  0.050282992

 FORCES acting on ions:
    Electron-Ion                     Ewald-Force                    Non-Local-Force
   0.480E+01 -.240E+00 0.123E+00   -.490E+01 0.143E+00 -.125E+00   -.127E+00 0.840E-01 0.204E-02
   0.655E+01 0.357E+01 0.250E+00   -.638E+01 -.379E+01 -.251E+00   -.162E+00 0.659E-01 0.108E-02
   0.914E+01 -.186E+01 0.102E+00   -.873E+01 0.213E+01 -.101E+00   -.159E+00 0.898E-02 -.114E-02
   0.333E+01 0.837E+01 0.187E-01   -.314E+01 -.839E+01 -.174E-01   -.359E+00 0.118E+00 -.850E-03
   0.102E+02 0.205E+02 -.988E-01   -.100E+02 -.208E+02 0.986E-01   -.329E+00 0.562E-02 -.527E-03
   0.219E+02 0.537E+01 0.279E+00   -.225E+02 -.554E+01 -.279E+00   0.314E+00 0.161E+00 0.110E-02
   0.159E+02 0.838E+01 0.181E+00   -.158E+02 -.836E+01 -.181E+00   0.239E-02 0.716E-01 0.399E-03
   -.105E+02 0.573E+02 -.593E+00   0.149E+02 -.606E+02 0.597E+00   -.375E+01 0.328E+01 -.391E-02
   0.258E+02 0.195E+00 0.324E+00   -.262E+02 -.211E+00 -.324E+00   -.559E-02 0.394E-01 0.207E-02
   0.631E+02 -.331E+01 0.182E+00   -.663E+02 0.344E+01 -.185E+00   0.366E+01 -.351E+00 0.531E-02
   0.187E+02 -.502E+01 0.186E+00   -.192E+02 0.495E+01 -.186E+00   0.325E+00 -.332E-01 0.229E-03
   0.659E+02 0.742E+01 0.263E+00   -.692E+02 -.766E+01 -.263E+00   0.372E+01 0.422E+00 0.800E-03
   -.159E+02 -.603E+02 0.767E-01   0.182E+02 0.637E+02 -.761E-01   -.223E+01 -.315E+01 -.105E-02
   0.669E+01 -.244E+02 0.400E-01   -.614E+01 0.249E+02 -.413E-01   -.381E+00 -.512E+00 0.218E-03
   0.340E+01 -.472E+01 0.621E-01   -.351E+01 0.482E+01 -.627E-01   -.981E-01 -.409E+00 -.618E-03
   0.155E+02 -.113E+02 0.411E-01   -.157E+02 0.116E+02 -.411E-01   0.336E-01 -.120E+00 -.101E-02
   0.203E+01 -.787E+01 0.998E-01   -.167E+01 0.820E+01 -.977E-01   -.291E+00 -.335E+00 -.250E-02
   -.525E+01 0.382E+00 0.693E+00   0.481E+01 -.587E+00 -.693E+00   0.315E+00 0.200E+00 0.205E-02
   -.167E+01 0.733E+01 0.499E-01   0.219E+01 -.686E+01 -.498E-01   -.373E+00 -.331E+00 0.930E-03
   -.651E-01 0.280E+01 0.465E+00   0.291E+00 -.279E+01 -.464E+00   0.144E-01 -.211E-01 0.119E-02
   -.600E+01 0.157E+02 0.458E+00   0.545E+01 -.162E+02 -.459E+00   0.375E+00 0.515E+00 0.351E-02
   0.677E+01 0.339E+02 -.240E+00   -.935E+01 -.368E+02 0.237E+00   0.271E+01 0.297E+01 0.166E-02
   0.229E+01 0.191E+02 -.498E+00   -.378E+01 -.175E+02 0.502E+00   0.130E+01 -.152E+01 -.573E-02
   -.304E+01 -.429E+02 -.381E+00   0.133E+00 0.463E+02 0.370E+00   0.236E+01 -.340E+01 0.100E-01
   -.147E+02 -.342E+02 -.745E-01   0.152E+02 0.337E+02 0.764E-01   -.506E+00 0.655E+00 -.207E-02
   -.108E+02 -.182E+02 0.212E+00   0.110E+02 0.187E+02 -.214E+00   0.186E-01 -.298E+00 0.188E-02
   -.482E+01 -.119E+02 0.496E+00   0.468E+01 0.121E+02 -.496E+00   0.351E+00 -.248E+00 0.105E-02
   -.432E+01 -.477E+01 0.362E+00   0.417E+01 0.487E+01 -.363E+00   -.155E-02 -.537E-01 0.210E-02
   -.332E+01 -.119E+02 0.283E+00   0.277E+01 0.116E+02 -.282E+00   0.347E+00 0.143E+00 -.606E-03
   -.472E+01 -.124E+01 0.755E+00   0.462E+01 0.151E+01 -.756E+00   0.199E+00 -.286E+00 0.281E-02
   -.493E+01 -.377E+00 0.351E+00   0.460E+01 0.355E+00 -.350E+00   0.660E-02 0.816E-02 -.976E-03
   -.137E+02 0.447E+01 0.473E+00   0.138E+02 -.472E+01 -.472E+00   -.712E-01 0.183E+00 0.819E-03
   -.622E+00 0.828E+00 0.582E+00   0.951E+00 -.978E+00 -.584E+00   -.234E-01 0.362E+00 0.250E-02
   0.550E+01 -.161E+01 0.345E+00   -.542E+01 0.178E+01 -.345E+00   0.651E-02 -.173E-01 0.899E-03
   -.137E+01 -.258E+00 0.311E+00   0.143E+01 0.382E+00 -.310E+00   -.238E+00 -.302E+00 0.270E-03
   -.417E+02 -.792E+01 -.272E+00   0.446E+02 0.817E+01 0.267E+00   -.349E+01 -.329E+00 0.428E-02
   -.121E+02 -.130E+01 0.190E+00   0.127E+02 0.129E+01 -.190E+00   -.284E+00 -.974E-02 0.221E-03
   0.784E+01 0.170E+00 0.290E+00   -.761E+01 0.229E+00 -.289E+00   0.136E+00 -.134E+00 0.391E-03
   0.355E+01 -.107E+01 0.144E+00   -.378E+01 0.965E+00 -.143E+00   -.357E-01 -.811E-01 0.103E-02
   -.500E+02 0.110E+02 -.364E+00   0.533E+02 -.112E+02 0.355E+00   -.386E+01 0.299E+00 0.978E-02
   -.148E+02 0.913E+01 -.277E+00   0.152E+02 -.910E+01 0.277E+00   -.304E-01 -.649E-01 -.155E-02
   0.358E+01 0.495E+01 0.282E+00   -.323E+01 -.495E+01 -.280E+00   -.379E-01 0.112E+00 -.319E-03
   -.431E+01 0.259E+01 0.322E+00   0.409E+01 -.294E+01 -.323E+00   -.194E+00 0.200E+00 0.261E-02
   -.154E+02 -.563E+01 0.236E+00   0.154E+02 0.557E+01 -.234E+00   -.229E+00 -.120E+00 -.133E-02
   -.155E+02 -.232E+01 0.129E+00   0.162E+02 0.266E+01 -.130E+00   -.335E+00 -.207E+00 0.104E-02
   0.101E+02 0.127E+00 0.281E+00   -.101E+02 -.306E+00 -.281E+00   0.248E+00 0.244E+00 0.365E-03
   -.279E+01 -.115E+01 0.268E+00   0.271E+01 0.105E+01 -.268E+00   -.124E-01 0.231E-01 -.138E-02
   -.770E+01 -.253E+01 0.616E+00   0.736E+01 0.229E+01 -.614E+00   0.181E+00 -.545E-01 -.112E-02
   -.338E+01 -.511E+01 0.435E+00   0.321E+01 0.533E+01 -.437E+00   0.155E+00 -.239E-02 0.150E-02
   0.730E+01 -.352E+01 0.205E+00   -.699E+01 0.360E+01 -.206E+00   -.485E-01 -.872E-01 -.575E-04
   -.193E+02 -.946E+00 -.116E+01   0.233E+02 0.805E+01 0.117E+01   -.467E+01 -.716E+01 -.207E-01
   -.251E+02 -.121E+02 -.621E+00   0.239E+02 0.958E+01 0.632E+00   0.157E+01 0.263E+01 -.120E-01
   0.584E+02 0.243E+02 -.508E+00   -.487E+02 -.932E+01 0.535E+00   -.968E+01 -.140E+02 -.267E-01
   0.522E+02 -.145E+02 0.412E+00   -.419E+02 -.321E+01 -.412E+00   -.101E+02 0.165E+02 0.110E-02
   -.164E+02 -.224E+02 -.870E+00   0.647E+01 0.379E+02 0.917E+00   0.998E+01 -.149E+02 -.466E-01
   -.312E+02 0.271E+02 -.175E+01   0.225E+02 -.428E+02 0.185E+01   0.907E+01 0.150E+02 -.950E-01
   -.528E+02 0.229E+02 -.903E+00   0.510E+02 -.212E+02 0.909E+00   0.100E+01 -.151E+01 -.465E-02
   -.715E+01 0.293E+02 -.310E+01   0.903E+01 -.353E+02 0.309E+01   -.189E+01 0.565E+01 0.144E-01
   0.547E+01 -.375E-01 0.165E+00   -.568E-13 0.995E-13 0.000E+00   -.555E+01 -.154E+00 -.151E+00

 POSITION                                       TOTAL-FORCE (eV/Angst)
      2.86515     12.49385      9.94411        -0.242464     -0.007904      0.000033
      0.69498      1.24399      9.94335         0.000668     -0.152962      0.000641
      1.44286     12.50465      9.94372         0.246708      0.277122     -0.000476
      3.54430      1.21347      9.94497        -0.186099      0.107356      0.000348
      2.83751      2.44416      9.94565        -0.168624     -0.236052     -0.000735
      0.71510      3.73756      9.94391        -0.347947      0.007600      0.001270
      1.41055      2.47822      9.94417         0.140593      0.087109      0.000889
      3.56761      3.66167      9.94776         0.499831      0.173338     -0.000336
      0.80197      6.23777      9.94379        -0.457868      0.023906      0.001703
      1.49163      4.95539      9.94477         0.685385     -0.252119      0.002873
      0.74538      8.76271      9.94354        -0.227617     -0.097054     -0.000106
      1.49297      7.52914      9.94389         0.624920      0.217261      0.000971
      3.54760      8.80171      9.94477        -0.020336     -0.011666     -0.000523
      2.86363     10.03323      9.94428         0.153691     -0.039552     -0.001031
      0.73750     11.26017      9.94355        -0.217606     -0.330413     -0.001308
      1.44070     10.01541      9.94390        -0.099774      0.189470     -0.001108
      3.57649     11.26348      9.94403         0.049652     -0.019614     -0.000612
      7.12850     12.49844      9.94237        -0.105476      0.000779      0.002137
      4.96467      1.21385      9.94514         0.130839      0.120256      0.001099
      5.70905     12.48552      9.94326         0.244033     -0.012788      0.001634
      7.80137      1.23313      9.94364        -0.149453      0.016793      0.002213
      7.10174      2.45525      9.94677         0.280339      0.188442     -0.001045
      5.66389      2.46201      9.94760        -0.122461      0.047734     -0.001455
      7.15112      7.58138      9.94775        -0.429376     -0.201202     -0.000151
      5.00297      8.74557      9.94560        -0.054740      0.190738     -0.000290
      7.85480      8.81270      9.94474         0.186847      0.132239      0.000509
      7.12742     10.02996      9.94314         0.230208     -0.030296      0.001241
      4.99644     11.24796      9.94342        -0.155187      0.050595      0.000831
      5.70179     10.00326      9.94388        -0.184959     -0.142943      0.000930
      7.83846     11.26960      9.94188         0.110262     -0.025521      0.002418
     11.34492      0.01781      9.94287        -0.342129     -0.011916     -0.000211
      9.22086      1.25671      9.94312         0.032699     -0.058388      0.001845
      9.96544     12.52086      9.94222         0.313610      0.232421      0.001223
     12.03853      1.27250      9.94332         0.089917      0.147149      0.000790
     11.33138      2.52824      9.94378        -0.200833     -0.194545      0.001054
      9.13680      3.75921      9.94688        -0.745590     -0.106464     -0.000458
      9.89525      2.52271      9.94446         0.243234     -0.018524      0.000265
     12.05077      3.77415      9.94418         0.374799      0.258227      0.001392
     11.33586      5.02500      9.94490        -0.252419     -0.196916      0.001567
      9.20805      6.30661      9.94759        -0.825488      0.121894      0.001058
      9.87337      5.02711      9.94676         0.401623     -0.026113     -0.001106
     12.11036      6.25454      9.94426         0.301488      0.116624      0.001897
     11.39702      7.50780      9.94402        -0.431695     -0.142628      0.001825
      9.27529      8.78818      9.94415        -0.233821     -0.183993      0.000748
      9.96777      7.52589      9.94508         0.410644      0.127028     -0.000206
     12.09526      8.76725      9.94366         0.252905      0.079020      0.000389
     11.39572     10.02264      9.94326        -0.097269     -0.072758     -0.000501
      9.26099     11.27129      9.94199        -0.160369     -0.300317      0.000880
      9.97403     10.02866      9.94283        -0.000796      0.218035      0.000275
     12.09099     11.27406      9.94341         0.269445     -0.017253     -0.000906
      5.00107      3.71464      9.94982        -0.932541     -0.436865     -0.005143
      5.73676      7.50499      9.94794         0.521767      0.226177     -0.001961
      2.86343      4.85397      9.94697        -0.792045     -0.216570     -0.001425
      2.85651      7.62289      9.94452        -0.607573      0.184694      0.000883
      7.73692      3.68720      9.94862         0.957021     -0.591717     -0.004259
      7.83736      6.38196      9.95051         1.148379      0.588370     -0.008060
      4.22045      6.20791      9.94739        -0.369780      0.216611      0.000840
      6.45030      5.13458      9.95187         0.260830     -0.211935     -0.005256
    total drift:                                0.002467      0.000440      0.000079

  FREE ENERGIE OF THE ION-ELECTRON SYSTEM (eV)
  free  energy   TOTEN  =      -599.87766813 eV

  energy  without entropy=     -599.87766813  energy(sigma->0) =     -599.87766813

 stress matrix after NEB project (eV)
    -48.24903      1.44171      0.00098
      1.44261    -38.54801     -0.00153
      0.00098     -0.00175     -0.39678
  FORCES: max atom, RMS     1.290356    0.449994
  FORCE total and by dimension    3.427049    1.148379
  Stress total and by dimension   61.791869   48.249028
 writing wavefunctions

 total charge

[...]

 magnetization (x)

# of ion       s       p       d       tot
    1       -0.000  -0.004   0.000  -0.005
    2       -0.000  -0.003   0.000  -0.004
    3        0.000   0.003   0.000   0.003
    4        0.001   0.009   0.000   0.009
    5       -0.001  -0.004   0.000  -0.005
    6       -0.000  -0.004   0.000  -0.004
    7        0.000   0.005   0.000   0.005
    8        0.000   0.003   0.000   0.003
    9       -0.000  -0.001   0.000  -0.001
   10        0.000   0.001   0.000   0.002
   11       -0.000  -0.004   0.000  -0.005
   12        0.000   0.006   0.000   0.006
   13        0.000   0.004   0.000   0.004
   14       -0.000  -0.003   0.000  -0.004
   15       -0.000  -0.003   0.000  -0.003
   16        0.000   0.003   0.000   0.004
   17        0.001   0.011   0.000   0.012
   18       -0.000  -0.004   0.000  -0.004
   19       -0.001  -0.006   0.000  -0.007
   20        0.000   0.005   0.000   0.005
   21        0.000   0.002   0.000   0.002
   22       -0.001  -0.004   0.000  -0.005
   23        0.001   0.016   0.000   0.017
   24       -0.000  -0.004   0.000  -0.004
   25       -0.001  -0.006   0.000  -0.006
   26        0.000   0.003   0.000   0.003
   27       -0.000  -0.003   0.000  -0.003
   28       -0.001  -0.004   0.000  -0.005
   29        0.000   0.004   0.000   0.004
   30        0.000   0.004   0.000   0.005
   31       -0.001  -0.007   0.000  -0.008
   32       -0.000  -0.004   0.000  -0.004
   33        0.000   0.004   0.000   0.004
   34        0.000   0.003   0.000   0.004
   35       -0.000  -0.005   0.000  -0.005
   36       -0.001  -0.011   0.000  -0.012
   37        0.000   0.005   0.000   0.005
   38        0.000   0.003   0.000   0.003
   39       -0.000  -0.004   0.000  -0.004
   40       -0.001  -0.007   0.000  -0.008
   41        0.001   0.006   0.000   0.007
   42        0.000   0.004   0.000   0.004
   43       -0.000  -0.002   0.000  -0.002
   44       -0.001  -0.007   0.000  -0.008
   45        0.000   0.004   0.000   0.004
   46        0.000   0.003   0.000   0.003
   47       -0.000  -0.005   0.000  -0.005
   48       -0.000  -0.002   0.000  -0.002
   49        0.000   0.004   0.000   0.005
   50        0.000   0.005   0.000   0.006
   51       -0.007  -0.029   0.000  -0.036
   52       -0.003  -0.008   0.000  -0.011
   53       -0.000  -0.001   0.000  -0.001
   54       -0.001  -0.005   0.000  -0.005
   55       -0.005  -0.009   0.000  -0.014
   56       -0.004  -0.013   0.000  -0.017
   57       -0.001  -0.003  -0.005  -0.008
   58        0.037   0.014   1.917   1.968
tot          0.015  -0.046   1.912   1.880