 vasp.5.4.4.18Apr17-6-g9f103f2a35 (build Feb 25 2019 10:51:38) complex

 executed on             LinuxIFC date 2021.06.16  08:11:34

 INCAR:
 POTCAR:    PAW_PBE C 08Apr2002
 POTCAR:    PAW_PBE N 08Apr2002
 POTCAR:    PAW_PBE Fe 06Sep2000
 POTCAR:    PAW_PBE Ti 08Apr2002

 POTCAR:    PAW_PBE C 08Apr2002
   VRHFIN =C: s2p2

   TITEL  = PAW_PBE C 08Apr2002
   POMASS =   12.011; ZVAL   =    4.000    mass and valenz
   ENMAX  =  400.000; ENMIN  =  300.000 eV

 POTCAR:    PAW_PBE N 08Apr2002
   VRHFIN =N: s2p3

[...]

 POTCAR:    PAW_PBE Fe 06Sep2000
   VRHFIN =Fe:  d7 s1

   TITEL  = PAW_PBE Fe 06Sep2000
   POMASS =   55.847; ZVAL   =    8.000    mass and valenz
   ENMAX  =  267.882; ENMIN  =  200.911 eV

 POTCAR:    PAW_PBE Ti 08Apr2002
   VRHFIN =Ti: d3 s1

   TITEL  = PAW_PBE Ti 08Apr2002
   POMASS =   47.880; ZVAL   =    4.000    mass and valenz
   ENMAX  =  178.330; ENMIN  =  133.747 eV

  PAW_PBE C 08Apr2002                   :
  PAW_PBE N 08Apr2002                   :
  PAW_PBE Fe 06Sep2000                  :
  PAW_PBE Ti 08Apr2002                  :

 POSCAR:  C  N Fe Ti
  positions in cartesian coordinates
 exchange correlation table for  LEXCH =        8
   RHO(1)=    0.500       N(1)  =     2000
   RHO(2)=  100.500       N(2)  =     4000

 VTST: version 3.2, (02/03/18)

 CHAIN: initializing optimizer

 OPT: Using VASP Conjugate-Gradient optimizer
 CHAIN: Read ICHAIN            0

 POSCAR:  C  N Fe Ti
  positions in cartesian coordinates

 ion  position               nearest neighbor table
   1  0.228  0.002  0.502-   3 1.45   4 1.46  18 1.46
   2  0.058  0.101  0.501-   7 1.42   3 1.43  33 1.45
   3  0.115  0.002  0.502-   2 1.43  16 1.43   1 1.45
   4  0.283  0.106  0.503-  20 1.45   1 1.46   5 1.46
   5  0.224  0.207  0.504-  50 1.38   7 1.45   4 1.46
   6  0.053  0.300  0.500-  10 1.41  37 1.42   7 1.43
   7  0.112  0.203  0.502-   2 1.42   6 1.43   5 1.45
   8  0.212  0.402  0.508-  50 1.38  10 1.40  11 1.43
   9  0.050  0.501  0.500-  14 1.41  41 1.42  10 1.42
  10  0.104  0.402  0.502-   8 1.40   6 1.41   9 1.42
  11  0.267  0.502  0.518-  54 1.38   8 1.43  12 1.43  58 2.41
  12  0.212  0.603  0.512-  51 1.39  14 1.41  11 1.43  58 2.52
  13  0.051  0.702  0.501-  14 1.41  45 1.42  17 1.43
  14  0.104  0.601  0.503-   9 1.41  13 1.41  12 1.41
  15  0.221  0.799  0.507-  51 1.37  17 1.44  18 1.45
  16  0.057  0.902  0.501-  17 1.42   3 1.43  49 1.44
  17  0.110  0.801  0.503-  16 1.42  13 1.43  15 1.44
  18  0.282  0.898  0.502-  15 1.45  28 1.46   1 1.46
  19  0.558  0.999  0.497-  22 1.43  29 1.43  21 1.43
  20  0.395  0.104  0.501-  52 1.39   4 1.45  21 1.46
  21  0.447  1.000  0.499-  19 1.43  28 1.45  20 1.46
  22  0.614  0.099  0.497-  23 1.42  19 1.43  31 1.43
  23  0.559  0.198  0.499-  52 1.39  22 1.42  24 1.44
  24  0.614  0.300  0.497-  53 1.40  35 1.41  23 1.44
  25  0.610  0.497  0.494-  53 1.39  55 1.39  39 1.44
  26  0.612  0.696  0.492-  55 1.41  43 1.42  27 1.45
  27  0.556  0.799  0.494-  56 1.39  29 1.43  26 1.45
  28  0.394  0.896  0.498-  56 1.40  21 1.45  18 1.46
  29  0.613  0.899  0.496-  19 1.43  27 1.43  47 1.43
  30  0.891  0.000  0.498-  49 1.42  33 1.42  32 1.43
  31  0.725  0.099  0.497-  36 1.41  32 1.42  22 1.43
  32  0.780  0.999  0.497-  31 1.42  47 1.42  30 1.43
  33  0.947  0.100  0.499-  30 1.42  34 1.43   2 1.45
  34  0.890  0.199  0.498-  37 1.41  33 1.43  36 1.43
  35  0.723  0.299  0.496-  24 1.41  40 1.42  36 1.43
  36  0.779  0.199  0.497-  31 1.41  35 1.43  34 1.43
  37  0.943  0.300  0.498-  34 1.41   6 1.42  38 1.43
  38  0.887  0.400  0.496-  41 1.42  40 1.42  37 1.43
  39  0.721  0.499  0.494-  44 1.42  40 1.42  25 1.44
  40  0.777  0.399  0.495-  35 1.42  38 1.42  39 1.42
  41  0.941  0.501  0.497-  38 1.42   9 1.42  42 1.42
  42  0.886  0.600  0.496-  41 1.42  44 1.42  45 1.43
  43  0.721  0.700  0.494-  26 1.42  44 1.43  48 1.43
  44  0.776  0.599  0.494-  39 1.42  42 1.42  43 1.43
  45  0.942  0.701  0.497-  46 1.42  13 1.42  42 1.43
  46  0.888  0.801  0.497-  45 1.42  49 1.43  48 1.43
  47  0.724  0.900  0.496-  48 1.41  32 1.42  29 1.43
  48  0.778  0.800  0.496-  47 1.41  43 1.43  46 1.43
  49  0.946  0.901  0.499-  30 1.42  46 1.43  16 1.44
  50  0.271  0.309  0.508-   8 1.38   5 1.38  57 1.92
  51  0.268  0.700  0.513-  15 1.37  12 1.39  58 2.02
  52  0.453  0.200  0.502-  23 1.39  20 1.39  57 1.93
  53  0.558  0.398  0.497-  25 1.39  24 1.40  57 1.98
  54  0.371  0.495  0.531-  11 1.38  57 1.90  58 1.93
  55  0.558  0.596  0.490-  25 1.39  26 1.41  58 2.10
  56  0.449  0.798  0.494-  27 1.39  28 1.40  58 2.19
  57  0.413  0.352  0.510-  54 1.90  50 1.92  52 1.93  53 1.98
  58  0.399  0.628  0.483-  54 1.93  51 2.02  55 2.10  56 2.19  11 2.41  12 2.52

  LATTYP: Found a triclinic cell.
 ALAT       =    12.9771000000
 B/A-ratio  =     1.8384061596
 C/A-ratio  =     0.9443327092
 COS(alpha) =     0.0016212191
 COS(beta)  =     0.0064088051
 COS(gamma) =     0.5466487883

  Lattice vectors:

 A1 = (  12.9771000000,   0.0000000000,   0.0000000000)
 A2 = (  13.0414988524,   0.0449036311,  19.9770457348)
 A3 = (   0.0785379844, -12.2544483301,   0.0000000000)

Analysis of symmetry for initial positions (statically):
 Subroutine PRICEL returns:
 Original cell was already a primitive cell.

 Routine SETGRP: Setting up the symmetry group for a
 triclinic supercell.

 Subroutine GETGRP returns: Found  1 space group operations
 (whereof  1 operations were pure point group operations)
 out of a pool of  2 trial point group operations.

The static configuration has the point symmetry C_1 .

Analysis of symmetry for dynamics (positions and initial velocities):
 Subroutine PRICEL returns:
 Original cell was already a primitive cell.

[...]

The dynamic configuration has the point symmetry C_1 .

Analysis of structural, dynamic, and magnetic symmetry:
 Subroutine PRICEL returns:
 Original cell was already a primitive cell.

 Routine SETGRP: Setting up the symmetry group for a
 triclinic supercell.

 Subroutine GETGRP returns: Found  1 space group operations
 (whereof  1 operations were pure point group operations)
 out of a pool of  2 trial point group operations.

The magnetic configuration has the point symmetry C_1 .

 Subroutine INISYM returns: Found  1 space group operations
 (whereof  1 operations are pure point group operations),
 and found     1 'primitive' translations

 KPOINTS: KPOINTS created by Atomic Simulation Env

Automatic generation of k-mesh.
Space group operators:
 irot       det(A)        alpha          n_x          n_y          n_z        tau_x        tau_y        tau_z
    1     1.000000     0.000001     1.000000     0.000000     0.000000     0.000000     0.000000     0.000000

 Subroutine IBZKPT returns following result:

 Found      2 irreducible k-points:

 Following reciprocal coordinates:
            Coordinates               Weight
  0.250000  0.250000 -0.000000      2.000000
 -0.250000  0.250000  0.000000      2.000000

 Following cartesian coordinates:
            Coordinates               Weight
  0.019265  0.020524 -0.000108      2.000000
 -0.019265  0.020277  0.000017      2.000000

 Subroutine IBZKPT_HF returns following result:

 Found      4 k-points in 1st BZ
 the following      4 k-points will be used (e.g. in the exchange kernel)
 Following reciprocal coordinates:   # in IRBZ
  0.250000  0.250000 -0.000000    0.25000000   1 t-inv F
 -0.250000  0.250000  0.000000    0.25000000   2 t-inv F
 -0.250000 -0.250000  0.000000    0.25000000   1 t-inv T
  0.250000 -0.250000 -0.000000    0.25000000   2 t-inv T

 SYSTEM =  unknown system
 POSCAR =   C  N Fe Ti

 Startparameter for this run:
   NWRITE =      2    write-flag & timer
   PREC   = accura    normal or accurate (medium, high low for compatibility)
   ISTART =      1    job   : 0-new  1-cont  2-samecut
   ICHARG =      0    charge: 1-file 2-atom 10-const
   ISPIN  =      2    spin polarized calculation?
   LNONCOLLINEAR =      F non collinear calculations
   LSORBIT =      F    spin-orbit coupling
   INIWAV =      1    electr: 0-lowe 1-rand  2-diag
   LASPH  =      T    aspherical Exc in radial PAW
   METAGGA=      F    non-selfconsistent MetaGGA calc.

 Electronic Relaxation 1
   ENCUT  =  500.0 eV  36.75 Ry    6.06 a.u.  23.66 22.34 36.42*2*pi/ulx,y,z
   ENINI  =  500.0     initial cutoff
   ENAUG  =  644.9 eV  augmentation charge cutoff
   NELM   =    250;   NELMIN=  2; NELMDL=  0     # of ELM steps
   EDIFF  = 0.1E-03   stopping-criterion for ELM
   LREAL  =      F    real-space projection
   NLSPLINE    = F    spline interpolate recip. space projectors
   LCOMPAT=      F    compatible to vasp.4.4
   GGA_COMPAT  = T    GGA compatible to vasp.4.4-vasp.4.6
   LMAXPAW     = -100 max onsite density
   LMAXMIX     =    2 max onsite mixed and CHGCAR
   VOSKOWN=      0    Vosko Wilk Nusair interpolation
   ROPT   =    0.00000   0.00000   0.00000   0.00000
 Ionic relaxation
   EDIFFG = -.3E-01   stopping-criterion for IOM
   NSW    =      0    number of steps for IOM
   NBLOCK =      1;   KBLOCK =      1    inner block; outer block
   IBRION =     -1    ionic relax: 0-MD 1-quasi-New 2-CG
   NFREE  =      1    steps in history (QN), initial steepest desc. (CG)
   ISIF   =      2    stress and relaxation
   IWAVPR =     10    prediction:  0-non 1-charg 2-wave 3-comb
   ISYM   =      3    0-nonsym 1-usesym 2-fastsym
   LCORR  =      T    Harris-Foulkes like correction to forces

   POTIM  = 0.5000    time-step for ionic-motion
   TEIN   =    0.0    initial temperature
   TEBEG  =    0.0;   TEEND  =   0.0 temperature during run
   SMASS  =  -3.00    Nose mass-parameter (am)
   estimated Nose-frequenzy (Omega)   =  0.10E-29 period in steps =****** mass=  -0.385E-26a.u.
   SCALEE = 1.0000    scale energy and forces
   NPACO  =    256;   APACO  = 16.0  distance and # of slots for P.C.
   PSTRESS=    0.0 pullay stress

  Mass of Ions in am
   POMASS =  12.01 14.00 55.85 47.88
  Ionic Valenz
   ZVAL   =   4.00  5.00  8.00  4.00
  Atomic Wigner-Seitz radii
  virtual crystal weights
   VCA    =   1.00  1.00  1.00  1.00
   NELECT =     243.0000    total number of electrons
   NUPDOWN=      -1.0000    fix difference up-down

 DOS related values:
   EMIN   =  10.00;   EMAX   =-10.00  energy-range for DOS
   EFERMI =   0.00
   ISMEAR =     0;   SIGMA  =   0.10  broadening in eV -4-tet -1-fermi 0-gaus

 Electronic relaxation 2 (details)
   IALGO  =     53    algorithm
   LDIAG  =      T    sub-space diagonalisation (order eigenvalues)
   LSUBROT=      F    optimize rotation matrix (better conditioning)
   TURBO    =      0    0=normal 1=particle mesh
   IRESTART =      0    0=no restart 2=restart with 2 vectors
   NREBOOT  =      0    no. of reboots
   NMIN     =      0    reboot dimension
   EREF     =   0.00    reference energy to select bands
   IMIX   =      4    mixing-type and parameters
     AMIX     =   0.40;   BMIX     =  1.00
     AMIX_MAG =   1.60;   BMIX_MAG =  1.00
     AMIN     =   0.10
     WC   =   100.;   INIMIX=   1;  MIXPRE=   1;  MAXMIX= -45

 Intra band minimization:
   WEIMIN = 0.0000     energy-eigenvalue tresh-hold
   EBREAK =  0.16E-06  absolut break condition
   DEPER  =   0.30     relativ break condition

[...]
   33        0.863   1.766   0.000   2.630
   34        0.870   1.776   0.000   2.646
   35        0.871   1.788   0.000   2.659
   36        0.867   1.785   0.000   2.652
   37        0.867   1.792   0.000   2.660
   38        0.868   1.784   0.000   2.652
   39        0.865   1.775   0.000   2.640
   40        0.870   1.782   0.000   2.652
   41        0.873   1.788   0.000   2.661
   42        0.867   1.780   0.000   2.647
   43        0.868   1.777   0.000   2.645
   44        0.868   1.776   0.000   2.644
   45        0.867   1.790   0.000   2.658
   46        0.869   1.770   0.000   2.639
   47        0.868   1.782   0.000   2.649
   48        0.866   1.780   0.000   2.645
   49        0.864   1.769   0.000   2.634
   50        1.231   2.667   0.000   3.899
   51        1.238   2.692   0.000   3.929
   52        1.229   2.659   0.000   3.888
   53        1.224   2.651   0.000   3.875
   54        1.261   2.560   0.000   3.822
   55        1.224   2.660   0.000   3.884
   56        1.229   2.639   0.000   3.868
   57        0.450   0.587   6.262   7.299
   58        0.484   0.701   2.528   3.712
tot         51.878 106.104   8.790 166.772

 magnetization (x)

[...]

  FORCE on cell =-STRESS in cart. coord.  units (eV):
  Direction    XX          YY          ZZ          XY          YZ          ZX
  Alpha Z   101.85690   101.85690   101.85690
  Ewald   47128.26094 47345.61644-55547.92351   -68.58528    70.68664   136.92236
  Hartree 46545.87388 46632.26216-45974.05440   -40.91896    54.13726    63.48326
  E(xc)    -708.95994  -708.78815  -722.55553     0.00410     0.40327     0.15521
  Local  -96313.06082-96591.65350 98392.01841   107.36018  -123.78155  -194.65543
  n-local  -202.85266  -198.09780  -197.03448    -2.82670    -0.84635    -0.05953
  augment    26.38708    25.40969    30.22378     0.39954    -0.48977     1.05419
  Kinetic  3674.47088  3645.07341  4189.91457     5.04102    -0.22886    -5.82548
  Fock     -295.65428  -295.00068  -273.52390    -0.59878     0.47537    -1.74606
  Total     -43.67802   -43.32153    -1.07815    -0.12488     0.35601    -0.67147
  in kB     -22.02778   -21.84800    -0.54374    -0.06298     0.17954    -0.33864

 VOLUME and BASIS-vectors are now :
  energy-cutoff  :      500.00
  volume of cell :     3176.89
      direct lattice vectors                 reciprocal lattice vectors
    12.977100000  0.000000000  0.000000000     0.077058819  0.000493865 -0.000249520
    -0.078537984 12.254448330  0.000000000     0.000000000  0.081603021 -0.000183424
     0.064398852  0.044903631 19.977045735     0.000000000  0.000000000  0.050057452

  length of vectors
    12.977100000 12.254700000 19.977200000     0.077060806  0.081603227  0.050057452

 FORCES acting on ions:
    Electron-Ion                     Ewald-Force                    Non-Local-Force
   -.423E+01 0.502E+01 -.290E+01   0.418E+01 -.485E+01 0.288E+01   0.597E-02 -.126E+00 0.165E-01
   0.186E+01 0.874E+01 -.127E+01   -.171E+01 -.901E+01 0.125E+01   -.123E+00 0.294E+00 0.112E-01
   -.105E+02 0.281E+01 -.527E+01   0.106E+02 -.277E+01 0.538E+01   -.108E+00 -.410E-01 -.124E+00
   0.453E+01 0.128E+02 -.364E+01   -.467E+01 -.129E+02 0.367E+01   0.100E+00 -.554E-01 -.316E-01
   0.851E+01 0.475E+02 -.596E+01   -.980E+01 -.505E+02 0.578E+01   0.135E+01 0.327E+01 0.171E+00
   0.832E+01 0.117E+02 0.719E+01   -.869E+01 -.119E+02 -.721E+01   0.297E+00 0.238E+00 0.302E-01
   0.180E+00 0.137E+02 -.945E+00   -.426E+00 -.140E+02 0.977E+00   0.158E+00 0.242E+00 -.314E-01
   0.239E+02 -.222E+02 -.116E+02   -.256E+02 0.252E+02 0.111E+02   0.165E+01 -.304E+01 0.499E+00
   0.537E+01 -.177E+01 0.117E+02   -.549E+01 0.178E+01 -.117E+02   0.162E+00 0.332E-01 -.531E-02
   0.149E+02 -.386E+01 0.651E+01   -.153E+02 0.414E+01 -.656E+01   0.413E+00 -.211E+00 0.567E-01
   0.160E+02 -.313E+02 -.712E+02   -.173E+02 0.301E+02 0.730E+02   0.135E+01 0.118E+01 -.165E+01
   -.217E+01 0.489E+01 -.432E+02   -.750E+00 -.812E+01 0.447E+02   0.274E+01 0.298E+01 -.142E+01
   0.327E+01 -.116E+02 0.380E+01   -.369E+01 0.118E+02 -.376E+01   0.318E+00 -.143E+00 -.233E-01
   0.385E+01 -.412E+01 0.804E+01   -.443E+01 0.368E+01 -.841E+01   0.574E+00 0.334E+00 0.395E+00
   -.864E+01 -.342E+02 -.222E+02   0.696E+01 0.378E+02 0.219E+02   0.173E+01 -.375E+01 0.278E+00
   0.911E+00 -.677E+01 -.641E+00   -.773E+00 0.712E+01 0.555E+00   -.733E-01 -.389E+00 0.892E-01
   -.283E+01 -.760E+01 -.928E+01   0.235E+01 0.800E+01 0.938E+01   0.402E+00 -.310E+00 -.954E-01
   -.752E+01 0.175E+01 -.390E+01   0.740E+01 -.150E+01 0.395E+01   0.795E-01 -.226E+00 -.285E-01
   0.245E+01 0.966E+01 0.748E+01   -.240E+01 -.965E+01 -.745E+01   -.141E+00 0.443E-01 -.185E-01
   0.276E+02 0.350E+02 -.119E+01   -.299E+02 -.374E+02 0.133E+01   0.241E+01 0.261E+01 -.112E+00
   0.146E+02 0.969E+01 0.535E+01   -.149E+02 -.968E+01 -.537E+01   0.344E+00 -.515E-01 0.249E-01
   -.866E+01 0.126E+02 0.824E+01   0.939E+01 -.125E+02 -.826E+01   -.651E+00 -.113E-01 0.267E-01
   -.316E+02 0.120E+02 0.916E+01   0.347E+02 -.121E+02 -.934E+01   -.323E+01 -.110E-01 0.189E+00
   -.198E+02 0.157E+02 0.164E+02   0.216E+02 -.180E+02 -.166E+02   -.167E+01 0.242E+01 0.184E+00
   0.289E+00 -.177E+02 0.231E+02   0.288E+01 0.174E+02 -.227E+02   -.341E+01 0.133E+00 -.350E+00
   0.157E+02 -.163E+02 0.237E+02   -.136E+02 0.189E+02 -.233E+02   -.185E+01 -.261E+01 -.350E+00
   -.751E+01 0.170E+02 0.197E+02   0.107E+02 -.167E+02 -.194E+02   -.315E+01 -.187E+00 -.249E+00
   0.232E+02 -.125E-01 0.574E+01   -.253E+02 0.254E+01 -.535E+01   0.212E+01 -.264E+01 -.383E+00
   -.211E+01 0.460E+01 0.943E+01   0.282E+01 -.475E+01 -.945E+01   -.641E+00 0.405E-01 0.478E-02
   0.372E+00 0.874E+00 0.325E+01   -.381E+00 -.826E+00 -.327E+01   -.591E-01 -.336E-01 0.126E-01
   -.401E+00 0.737E+01 0.797E+01   0.854E+00 -.735E+01 -.798E+01   -.388E+00 0.330E-01 0.908E-02
   -.523E+01 0.405E+01 0.502E+01   0.541E+01 -.404E+01 -.500E+01   -.106E+00 -.312E-02 -.179E-01
   -.803E+01 0.399E+01 0.114E+01   0.812E+01 -.400E+01 -.110E+01   -.114E+00 0.248E-01 -.659E-01
   0.991E+00 0.724E+01 0.674E+01   -.876E+00 -.730E+01 -.674E+01   -.747E-01 0.545E-01 0.908E-03
   -.112E+02 0.598E+01 0.140E+02   0.114E+02 -.647E+01 -.140E+02   -.323E+00 0.381E+00 0.117E-01
   -.743E+01 0.693E+00 0.963E+01   0.758E+01 -.106E+01 -.961E+01   -.156E+00 0.268E+00 -.111E-01
   0.155E+01 -.994E-01 0.956E+01   -.162E+01 -.200E-02 -.957E+01   0.145E+00 0.502E-01 -.457E-02
   0.178E+00 0.348E+01 0.135E+02   0.876E-02 -.358E+01 -.135E+02   -.205E+00 0.171E+00 -.265E-01
   -.102E+01 -.618E+01 0.174E+02   0.186E+01 0.619E+01 -.174E+02   -.602E+00 0.123E-01 -.359E-01
   -.553E+01 -.325E+01 0.144E+02   0.590E+01 0.322E+01 -.143E+02   -.352E+00 0.139E+00 -.759E-01
   0.317E+01 -.277E+01 0.151E+02   -.322E+01 0.278E+01 -.151E+02   -.297E-01 -.159E-01 0.148E-01
   0.262E+01 -.639E+01 0.155E+02   -.252E+01 0.648E+01 -.155E+02   -.150E+00 -.132E+00 -.401E-01
   0.223E+00 -.750E+01 0.150E+02   -.740E-01 0.800E+01 -.150E+02   -.336E+00 -.376E+00 -.956E-02
   -.751E+00 -.487E+01 0.181E+02   0.112E+01 0.488E+01 -.181E+02   -.293E+00 -.147E+00 0.867E-01
   0.210E+01 -.175E+01 0.120E+02   -.218E+01 0.177E+01 -.120E+02   0.170E+00 -.415E-02 0.516E-01
   0.302E+01 -.514E+01 0.738E+01   -.292E+01 0.521E+01 -.735E+01   -.579E-01 -.463E-01 -.265E-01
   0.492E+01 0.215E+00 0.652E+01   -.448E+01 -.199E+00 -.650E+01   -.383E+00 -.582E-01 -.255E-01
   -.154E+01 0.323E+01 0.863E+01   0.167E+01 -.285E+01 -.864E+01   -.147E+00 -.290E+00 -.291E-02
   -.719E+01 0.619E+00 0.322E+01   0.722E+01 -.571E+00 -.320E+01   -.529E-01 -.805E-01 -.156E-01
   -.228E+02 0.312E+02 -.241E+02   0.425E+02 -.301E+02 0.253E+02   -.190E+02 -.131E+01 -.109E+01
   -.106E+03 -.149E+02 -.899E+02   0.127E+03 0.158E+02 0.953E+02   -.200E+02 -.630E+00 -.525E+01
   0.337E+02 0.318E+00 -.584E+01   -.440E+02 0.171E+02 0.719E+01   0.981E+01 -.169E+02 -.137E+01
   0.406E+02 -.350E+02 0.272E+02   -.617E+02 0.344E+02 -.263E+02   0.202E+02 0.835E+00 -.867E+00
   -.102E+03 -.847E+02 -.242E+03   0.123E+03 0.834E+02 0.254E+03   -.198E+02 0.170E+01 -.115E+02
   0.106E+03 -.140E+02 0.624E+02   -.127E+03 0.140E+02 -.635E+02   0.198E+02 -.202E+00 0.105E+01
   0.549E+02 0.871E+02 0.397E+02   -.667E+02 -.106E+03 -.402E+02   0.111E+02 0.182E+02 0.531E+00
   -.275E+02 -.197E+02 -.726E+02   0.266E+02 0.213E+02 0.734E+02   0.113E+01 -.156E+01 -.639E+00
   -.165E+02 -.170E+02 0.146E+03   0.186E+02 0.178E+02 -.142E+03   -.159E+01 -.307E+00 -.393E+01
   0.859E+00 0.487E+00 0.279E+02   -.217E-12 -.355E-13 -.284E-13   -.647E+00 -.195E+00 -.261E+02

 POSITION                                       TOTAL-FORCE (eV/Angst)
      2.98462      0.04915     10.02945        -0.039824      0.031791      0.001442
      0.78218      1.26139     10.00449         0.029865      0.044273     -0.012915
      1.52996      0.04260     10.02287        -0.000416      0.002583     -0.020617
      3.69536      1.32396     10.03890        -0.041951     -0.095721      0.000421
      2.91998      2.56146     10.07018         0.125327      0.536027      0.010410
      0.69088      3.70114      9.99052        -0.044872      0.033992      0.005537
      1.47322      2.50429     10.02308        -0.087975     -0.094971     -0.001215
      2.74843      4.95094     10.14632         0.046430     -0.182956      0.043110
      0.63603      6.16690      9.98666         0.048641      0.049763      0.028590
      1.35585      4.94470     10.02956         0.022893      0.050043      0.011315
      3.45328      6.17530     10.34623         0.167314      0.023021      0.018386
      2.73434      7.40931     10.22229        -0.026716     -0.100560     -0.015416
      0.64542      8.62394     10.00442        -0.086319     -0.026196      0.016384
      1.33354      7.39138     10.03901         0.027718     -0.092720      0.051223
      2.83163      9.81392     10.11910         0.137973     -0.382039      0.034631
      0.70398     11.07571     10.00743         0.069277     -0.058562      0.008533
      1.39837      9.84260     10.05206        -0.067854      0.085822     -0.009065
      3.61534     11.02791     10.03241        -0.037660      0.011219      0.017431
      7.19352     12.26184      9.93062        -0.095949      0.051961      0.012095
      5.14930      1.30047     10.01429         0.261723      0.411384      0.022937
      5.76063     12.27318      9.96210         0.116101     -0.054148      0.001777
      7.99867      1.23391      9.93380         0.036310      0.047212      0.003837
      7.27657      2.45377      9.95945        -0.361438     -0.138825      0.017493
      7.98171      3.70425      9.92118         0.102131      0.266661      0.016772
      7.90435      6.11635      9.86571        -0.422980     -0.148403      0.050683
      7.92039      8.55567      9.83541         0.118916     -0.118847     -0.019416
      7.18831      9.80775      9.86273        -0.132726      0.130064     -0.002233
      5.07263     11.00007      9.95598         0.168276     -0.247148     -0.010966
      7.91769     11.03346      9.90125         0.030120     -0.109329     -0.009880
     11.58979      0.02638      9.95243        -0.063022      0.010839     -0.003769
      9.42782      1.23402      9.92378         0.051674      0.050671      0.001013
     10.07719     12.27035      9.92942         0.064570      0.009826     -0.001647
     12.31367      1.25285      9.96881        -0.032275      0.008219     -0.021105
     11.56135      2.46318      9.94085         0.042723      0.005702      0.000559
      9.39467      3.68023      9.90306        -0.198564     -0.073474      0.010015
     10.13095      2.45734      9.91903        -0.024613     -0.095682      0.011759
     12.24907      3.69643      9.94312         0.078382     -0.057415     -0.009098
     11.50917      4.92178      9.91248        -0.028334      0.089300      0.005681
      9.34855      6.13346      9.86987         0.212265      0.025169      0.009438
     10.08960      4.91766      9.89111        -0.005530      0.105687      0.015219
     12.19841      6.15789      9.92348        -0.078738     -0.003998      0.005873
     11.48076      7.38101      9.90175        -0.060488     -0.060333      0.010524
      9.33683      8.59751      9.86673        -0.207460      0.094025     -0.015334
     10.05756      7.36757      9.86884         0.059951     -0.150065      0.015291
     12.20500      8.61428      9.93545         0.088325      0.021009      0.025391
     11.49887      9.84096      9.93165         0.041977      0.016502      0.004682
      9.35214     11.04672      9.91158         0.042700     -0.050854     -0.011424
     10.06655      9.82901      9.90249        -0.030926      0.080302     -0.011601
     12.23794     11.06244      9.96283        -0.040136     -0.032704      0.005133
      3.52329      3.80483     10.14288        -0.904667     -0.337023     -0.037254
      3.45243      8.59821     10.25066        -0.542579      0.211837     -0.247010
      5.89288      2.47726     10.03222         0.374091     -0.928829     -0.143997
      7.24218      4.89854      9.92827         0.854477      0.276349     -0.060995
      4.80585      6.09512     10.61756        -0.534630      0.648204     -0.562901
      7.22239      7.32957      9.79116         0.606510     -0.214122      0.032629
      5.79880      9.80537      9.86420         0.239890      0.596450      0.050654
      5.36477      4.33153     10.19481         0.009253     -0.051056      0.051351
      5.16316      7.71906      9.64555        -0.077157     -0.119926      0.599639
    total drift:                                0.002169      0.001353      0.000319

  FREE ENERGIE OF THE ION-ELECTRON SYSTEM (eV)
  free  energy   TOTEN  =      -610.87591340 eV

  energy  without entropy=     -610.87591340  energy(sigma->0) =     -610.87591340

 stress matrix after NEB project (eV)
    -43.67802     -0.12469     -0.67147
     -0.12488    -43.32153      0.35614
     -0.66623      0.35601     -1.07815
  FORCES: max atom, RMS     1.011633    0.351789
  FORCE total and by dimension    2.679149    0.928829
  Stress total and by dimension   61.537520   43.678018
 writing wavefunctions

 total charge

[...]

 magnetization (x)

# of ion       s       p       d       tot
    1        0.000   0.000   0.000   0.000
    2        0.000   0.001   0.000   0.001
    3       -0.000  -0.000   0.000  -0.000
    4        0.000   0.001   0.000   0.001
    5        0.000   0.003   0.000   0.003
    6        0.000   0.001   0.000   0.002
    7       -0.000  -0.002   0.000  -0.002
    8        0.000   0.005   0.000   0.005
    9        0.000   0.001   0.000   0.001
   10       -0.000  -0.002   0.000  -0.003
   11        0.001   0.004   0.000   0.004
   12       -0.000  -0.002   0.000  -0.002
   13       -0.000  -0.000   0.000  -0.000
   14        0.000   0.003   0.000   0.003
   15        0.000   0.002   0.000   0.003
   16        0.000   0.000   0.000   0.000
   17       -0.000  -0.001   0.000  -0.001
   18        0.000   0.002   0.000   0.002
   19        0.000   0.003   0.000   0.003
   20        0.000   0.004   0.000   0.004
   21       -0.000  -0.002   0.000  -0.002
   22       -0.000  -0.002   0.000  -0.002
   23        0.000   0.004   0.000   0.004
   24        0.000   0.003   0.000   0.004
   25        0.000   0.005   0.000   0.005
   26        0.000   0.002   0.000   0.002
   27        0.000   0.002   0.000   0.003
   28       -0.000   0.001   0.000   0.001
   29       -0.000  -0.001   0.000  -0.001
   30        0.000   0.000   0.000   0.000
   31        0.000   0.001   0.000   0.001
   32       -0.000   0.000   0.000   0.000
   33       -0.000  -0.001   0.000  -0.001
   34        0.000   0.001   0.000   0.001
   35       -0.000  -0.000   0.000  -0.000
   36       -0.000   0.000   0.000   0.000
   37       -0.000   0.000   0.000   0.000
   38        0.000   0.001   0.000   0.001
   39       -0.000  -0.001   0.000  -0.001
   40        0.000   0.001   0.000   0.001
   41        0.000   0.001   0.000   0.001
   42       -0.000  -0.000   0.000  -0.000
   43       -0.000  -0.000   0.000  -0.000
   44        0.000   0.002   0.000   0.002
   45        0.000   0.001   0.000   0.001
   46        0.000   0.000   0.000   0.000
   47        0.000   0.000   0.000   0.001
   48       -0.000  -0.000   0.000  -0.000
   49       -0.000   0.000   0.000   0.000
   50       -0.005  -0.025   0.000  -0.029
   51       -0.002  -0.016   0.000  -0.018
   52       -0.004  -0.022   0.000  -0.026
   53       -0.003  -0.019   0.000  -0.022
   54       -0.004  -0.054   0.000  -0.058
   55       -0.002  -0.007   0.000  -0.009
   56       -0.001  -0.006   0.000  -0.007
   57        0.020   0.016   1.906   1.943
   58        0.056   0.030   0.837   0.923
tot          0.057  -0.062   2.743   2.738