 vasp.5.4.4.18Apr17-6-g9f103f2a35 (build Feb 25 2019 10:51:38) complex

 executed on             LinuxIFC date 2021.06.17  13:08:14

 INCAR:
 POTCAR:    PAW_PBE C 08Apr2002
 POTCAR:    PAW_PBE N 08Apr2002
 POTCAR:    PAW_PBE Fe 06Sep2000
 POTCAR:    PAW_PBE Ti 08Apr2002

 POTCAR:    PAW_PBE C 08Apr2002
   VRHFIN =C: s2p2

   TITEL  = PAW_PBE C 08Apr2002
   POMASS =   12.011; ZVAL   =    4.000    mass and valenz
   ENMAX  =  400.000; ENMIN  =  300.000 eV

 POTCAR:    PAW_PBE N 08Apr2002
   VRHFIN =N: s2p3

[...]

 POTCAR:    PAW_PBE Fe 06Sep2000
   VRHFIN =Fe:  d7 s1

   TITEL  = PAW_PBE Fe 06Sep2000
   POMASS =   55.847; ZVAL   =    8.000    mass and valenz
   ENMAX  =  267.882; ENMIN  =  200.911 eV

 POTCAR:    PAW_PBE Ti 08Apr2002
   VRHFIN =Ti: d3 s1

   TITEL  = PAW_PBE Ti 08Apr2002
   POMASS =   47.880; ZVAL   =    4.000    mass and valenz
   ENMAX  =  178.330; ENMIN  =  133.747 eV

  PAW_PBE C 08Apr2002                   :
  PAW_PBE N 08Apr2002                   :
  PAW_PBE Fe 06Sep2000                  :
  PAW_PBE Ti 08Apr2002                  :

 POSCAR:  C  N Fe Ti
  positions in cartesian coordinates
 exchange correlation table for  LEXCH =        8
   RHO(1)=    0.500       N(1)  =     2000
   RHO(2)=  100.500       N(2)  =     4000

 VTST: version 3.2, (02/03/18)

 CHAIN: initializing optimizer

 OPT: Using VASP Conjugate-Gradient optimizer
 CHAIN: Read ICHAIN            0

 POSCAR:  C  N Fe Ti
  positions in cartesian coordinates

 ion  position               nearest neighbor table
   1  0.222  0.002  0.500-  19 1.42   4 1.43   3 1.43
   2  0.056  0.102  0.500-   3 1.42  33 1.43   7 1.43
   3  0.110  0.002  0.500-   2 1.42  17 1.43   1 1.43
   4  0.278  0.103  0.500-  21 1.42   1 1.43   5 1.43
   5  0.226  0.205  0.500-   4 1.43   7 1.43   8 1.44
   6  0.058  0.303  0.500-   7 1.42  11 1.43  37 1.44
   7  0.113  0.203  0.500-   6 1.42   2 1.43   5 1.43
   8  0.285  0.305  0.500-  50 1.38   5 1.44   9 1.46
   9  0.230  0.408  0.500-  49 1.38  11 1.46   8 1.46
  10  0.057  0.501  0.500-  14 1.42  11 1.43  40 1.44
  11  0.115  0.403  0.500-  10 1.43   6 1.43   9 1.46
  12  0.225  0.600  0.500-  49 1.38  14 1.44  15 1.44
  13  0.055  0.700  0.500-  18 1.42  14 1.43  44 1.44
  14  0.112  0.601  0.500-  10 1.42  13 1.43  12 1.44
  15  0.280  0.703  0.500-  52 1.36  16 1.43  12 1.44
  16  0.222  0.802  0.500-  19 1.42  15 1.43  18 1.43
  17  0.054  0.901  0.500-  18 1.43   3 1.43  48 1.43
  18  0.110  0.801  0.500-  13 1.42  17 1.43  16 1.43
  19  0.277  0.902  0.500-  16 1.42  27 1.42   1 1.42
  20  0.555  0.999  0.500-  22 1.41  23 1.42  29 1.43
  21  0.390  0.102  0.500-  25 1.42   4 1.42  22 1.43
  22  0.444  0.001  0.500-  20 1.41  27 1.42  21 1.43
  23  0.611  0.100  0.500-  31 1.42  24 1.42  20 1.42
  24  0.558  0.202  0.500-  51 1.37  23 1.42  25 1.45
  25  0.445  0.203  0.500-  50 1.39  21 1.42  24 1.45
  26  0.555  0.796  0.500-  53 1.38  29 1.43  28 1.45
  27  0.389  0.901  0.500-  22 1.42  19 1.42  28 1.43
  28  0.441  0.799  0.500-  52 1.36  27 1.43  26 1.45
  29  0.609  0.898  0.500-  46 1.42  20 1.43  26 1.43
  30  0.888  0.000  0.500-  48 1.42  32 1.42  33 1.43
  31  0.722  0.100  0.500-  23 1.42  32 1.42  36 1.43
  32  0.777  1.000  0.500-  31 1.42  30 1.42  46 1.43
  33  0.944  0.101  0.500-  34 1.43  30 1.43   2 1.43
  34  0.889  0.202  0.500-  37 1.42  33 1.43  36 1.43
  35  0.719  0.300  0.500-  51 1.36  36 1.43  39 1.46
  36  0.777  0.201  0.500-  31 1.43  34 1.43  35 1.43
  37  0.945  0.302  0.500-  34 1.42  38 1.43   6 1.44
  38  0.888  0.401  0.500-  40 1.42  37 1.43  39 1.44
  39  0.775  0.404  0.500-  54 1.36  38 1.44  35 1.46
  40  0.944  0.501  0.500-  38 1.42  41 1.43  10 1.44
  41  0.886  0.599  0.500-  44 1.42  40 1.43  43 1.45
  42  0.713  0.697  0.500-  53 1.38  47 1.45  43 1.47
  43  0.772  0.594  0.500-  54 1.35  41 1.45  42 1.47
  44  0.942  0.699  0.500-  45 1.42  41 1.42  13 1.44
  45  0.886  0.799  0.500-  44 1.42  48 1.43  47 1.44
  46  0.720  0.898  0.500-  29 1.42  47 1.43  32 1.43
  47  0.773  0.797  0.500-  46 1.43  45 1.44  42 1.45
  48  0.942  0.900  0.500-  30 1.42  17 1.43  45 1.43
  49  0.283  0.506  0.500-  12 1.38   9 1.38  56 2.41
  50  0.394  0.302  0.499-   8 1.38  25 1.39  55 1.94
  51  0.612  0.299  0.500-  35 1.36  24 1.37  55 2.01
  52  0.387  0.704  0.500-  28 1.36  15 1.36  56 2.15
  53  0.605  0.697  0.500-  42 1.38  26 1.38
  54  0.720  0.498  0.500-  43 1.35  39 1.36
  55  0.502  0.414  0.499-  56 1.75  50 1.94  51 2.01
  56  0.468  0.551  0.500-  55 1.75  52 2.15  49 2.41

  LATTYP: Found a triclinic cell.
 ALAT       =    12.3140000000
 B/A-ratio  =     1.4332262390
 C/A-ratio  =     1.6430323209
 COS(alpha) =     0.0002393364
 COS(beta)  =     0.0003665191
 COS(gamma) =     0.6913658577

  Lattice vectors:

 A1 = (   0.1084041691, -12.3135228321,   0.0000000000)
 A2 = ( -12.6433958309, -12.3135228321,   0.0000000000)
 A3 = (   0.0004590563,  -0.0074117711, -20.2322986372)

Analysis of symmetry for initial positions (statically):
 Subroutine PRICEL returns:
 Original cell was already a primitive cell.

 Routine SETGRP: Setting up the symmetry group for a
 triclinic supercell.

 Subroutine GETGRP returns: Found  1 space group operations
 (whereof  1 operations were pure point group operations)
 out of a pool of  2 trial point group operations.

The static configuration has the point symmetry C_1 .

Analysis of symmetry for dynamics (positions and initial velocities):
 Subroutine PRICEL returns:
 Original cell was already a primitive cell.

[...]

The dynamic configuration has the point symmetry C_1 .

Analysis of structural, dynamic, and magnetic symmetry:
 Subroutine PRICEL returns:
 Original cell was already a primitive cell.

 Routine SETGRP: Setting up the symmetry group for a
 triclinic supercell.

 Subroutine GETGRP returns: Found  1 space group operations
 (whereof  1 operations were pure point group operations)
 out of a pool of  2 trial point group operations.

The magnetic configuration has the point symmetry C_1 .

 Subroutine INISYM returns: Found  1 space group operations
 (whereof  1 operations are pure point group operations),
 and found     1 'primitive' translations

 KPOINTS: KPOINTS created by Atomic Simulation Env

Automatic generation of k-mesh.
Space group operators:
 irot       det(A)        alpha          n_x          n_y          n_z        tau_x        tau_y        tau_z
    1     1.000000     0.000000     1.000000     0.000000     0.000000     0.000000     0.000000     0.000000

 Subroutine IBZKPT returns following result:

 Found      2 irreducible k-points:

 Following reciprocal coordinates:
            Coordinates               Weight
  0.250000  0.250000 -0.000000      2.000000
 -0.250000  0.250000  0.000000      2.000000

 Following cartesian coordinates:
            Coordinates               Weight
  0.019605  0.020475 -0.000007      2.000000
 -0.019605  0.020130 -0.000008      2.000000

 Subroutine IBZKPT_HF returns following result:

 Found      4 k-points in 1st BZ
 the following      4 k-points will be used (e.g. in the exchange kernel)
 Following reciprocal coordinates:   # in IRBZ
  0.250000  0.250000 -0.000000    0.25000000   1 t-inv F
 -0.250000  0.250000  0.000000    0.25000000   2 t-inv F
 -0.250000 -0.250000  0.000000    0.25000000   1 t-inv T
  0.250000 -0.250000 -0.000000    0.25000000   2 t-inv T

 SYSTEM =  unknown system
 POSCAR =   C  N Fe Ti

 Startparameter for this run:
   NWRITE =      2    write-flag & timer
   PREC   = accura    normal or accurate (medium, high low for compatibility)
   ISTART =      1    job   : 0-new  1-cont  2-samecut
   ICHARG =      0    charge: 1-file 2-atom 10-const
   ISPIN  =      2    spin polarized calculation?
   LNONCOLLINEAR =      F non collinear calculations
   LSORBIT =      F    spin-orbit coupling
   INIWAV =      1    electr: 0-lowe 1-rand  2-diag
   LASPH  =      T    aspherical Exc in radial PAW
   METAGGA=      F    non-selfconsistent MetaGGA calc.

 Electronic Relaxation 1
   ENCUT  =  500.0 eV  36.75 Ry    6.06 a.u.  23.25 22.45 36.89*2*pi/ulx,y,z
   ENINI  =  500.0     initial cutoff
   ENAUG  =  644.9 eV  augmentation charge cutoff
   NELM   =    250;   NELMIN=  2; NELMDL=  0     # of ELM steps
   EDIFF  = 0.1E-03   stopping-criterion for ELM
   LREAL  =      F    real-space projection
   NLSPLINE    = F    spline interpolate recip. space projectors
   LCOMPAT=      F    compatible to vasp.4.4
   GGA_COMPAT  = T    GGA compatible to vasp.4.4-vasp.4.6
   LMAXPAW     = -100 max onsite density
   LMAXMIX     =    2 max onsite mixed and CHGCAR
   VOSKOWN=      0    Vosko Wilk Nusair interpolation
   ROPT   =    0.00000   0.00000   0.00000   0.00000
 Ionic relaxation
   EDIFFG = -.3E-01   stopping-criterion for IOM
   NSW    =      0    number of steps for IOM
   NBLOCK =      1;   KBLOCK =      1    inner block; outer block
   IBRION =     -1    ionic relax: 0-MD 1-quasi-New 2-CG
   NFREE  =      1    steps in history (QN), initial steepest desc. (CG)
   ISIF   =      2    stress and relaxation
   IWAVPR =     10    prediction:  0-non 1-charg 2-wave 3-comb
   ISYM   =      3    0-nonsym 1-usesym 2-fastsym
   LCORR  =      T    Harris-Foulkes like correction to forces

   POTIM  = 0.5000    time-step for ionic-motion
   TEIN   =    0.0    initial temperature
   TEBEG  =    0.0;   TEEND  =   0.0 temperature during run
   SMASS  =  -3.00    Nose mass-parameter (am)
   estimated Nose-frequenzy (Omega)   =  0.10E-29 period in steps =****** mass=  -0.372E-26a.u.
   SCALEE = 1.0000    scale energy and forces
   NPACO  =    256;   APACO  = 16.0  distance and # of slots for P.C.
   PSTRESS=    0.0 pullay stress

  Mass of Ions in am
   POMASS =  12.01 14.00 55.85 47.88
  Ionic Valenz
   ZVAL   =   4.00  5.00  8.00  4.00
  Atomic Wigner-Seitz radii
  virtual crystal weights
   VCA    =   1.00  1.00  1.00  1.00
   NELECT =     234.0000    total number of electrons
   NUPDOWN=      -1.0000    fix difference up-down

 DOS related values:
   EMIN   =  10.00;   EMAX   =-10.00  energy-range for DOS
   EFERMI =   0.00
   ISMEAR =     0;   SIGMA  =   0.10  broadening in eV -4-tet -1-fermi 0-gaus

 Electronic relaxation 2 (details)
   IALGO  =     53    algorithm
   LDIAG  =      T    sub-space diagonalisation (order eigenvalues)
   LSUBROT=      F    optimize rotation matrix (better conditioning)
   TURBO    =      0    0=normal 1=particle mesh
   IRESTART =      0    0=no restart 2=restart with 2 vectors
   NREBOOT  =      0    no. of reboots
   NMIN     =      0    reboot dimension
   EREF     =   0.00    reference energy to select bands
   IMIX   =      4    mixing-type and parameters
     AMIX     =   0.40;   BMIX     =  1.00
     AMIX_MAG =   1.60;   BMIX_MAG =  1.00
     AMIN     =   0.10
     WC   =   100.;   INIMIX=   1;  MIXPRE=   1;  MAXMIX= -45

 Intra band minimization:
   WEIMIN = 0.0000     energy-eigenvalue tresh-hold
   EBREAK =  0.17E-06  absolut break condition
   DEPER  =   0.30     relativ break condition

   TIME   =   0.20     timestep for ELM

  volume/ion in A,a.u.               =      56.73       382.83
  Fermi-wavevector in a.u.,A,eV,Ry     =   0.686247  1.296819  6.407458  0.470935
[...]
   21        0.868   1.782   0.000   2.650
   22        0.867   1.794   0.000   2.661
   23        0.869   1.784   0.000   2.653
   24        0.861   1.742   0.000   2.602
   25        0.859   1.737   0.000   2.595
   26        0.858   1.728   0.000   2.586
   27        0.868   1.785   0.000   2.653
   28        0.862   1.743   0.000   2.605
   29        0.867   1.775   0.000   2.642
   30        0.867   1.777   0.000   2.644
   31        0.871   1.768   0.000   2.639
   32        0.864   1.785   0.000   2.649
   33        0.866   1.770   0.000   2.635
   34        0.867   1.772   0.000   2.639
   35        0.860   1.736   0.000   2.596
   36        0.865   1.773   0.000   2.638
   37        0.863   1.775   0.000   2.638
   38        0.868   1.772   0.000   2.640
   39        0.856   1.739   0.000   2.595
   40        0.868   1.763   0.000   2.631
   41        0.864   1.764   0.000   2.629
   42        0.852   1.702   0.000   2.554
   43        0.854   1.720   0.000   2.574
   44        0.865   1.777   0.000   2.642
   45        0.864   1.764   0.000   2.628
   46        0.870   1.762   0.000   2.633
   47        0.862   1.758   0.000   2.620
   48        0.866   1.769   0.000   2.635
   49        1.234   2.614   0.000   3.848
   50        1.225   2.663   0.000   3.889
   51        1.232   2.684   0.000   3.916
   52        1.239   2.688   0.000   3.927
   53        1.235   2.619   0.000   3.855
   54        1.251   2.625   0.000   3.875
   55        0.334   0.382   6.724   7.440
   56        0.290   0.459   2.947   3.696
tot         49.505 101.330   9.671 160.506

 magnetization (x)

[...]

  FORCE on cell =-STRESS in cart. coord.  units (eV):
  Direction    XX          YY          ZZ          XY          YZ          ZX
  Alpha Z    94.98530    94.98530    94.98530
  Ewald   45228.05318 45362.54945-53195.59582   -36.72579    -3.91706    -0.26241
  Hartree 44679.43768 44653.50951-44018.55290    -5.64449    -2.99046     0.03853
  E(xc)    -680.91380  -684.27349  -694.01840     1.05793    -0.04756     0.00755
  Local  -92430.80941-92503.83001 94228.56000    35.14632     6.99069     0.12412
  n-local  -201.08840  -204.91804  -191.87577     0.45801    -0.09754     0.01931
  augment    26.47802    23.19673    24.51768     0.78646     0.02558     0.02351
  Kinetic  3527.75934  3507.66474  4008.29306     3.17028     0.18615     0.04910
  Fock     -286.68855  -291.11418  -256.73000     0.91997    -0.10812    -0.00931
  Total     -42.78664   -42.22998    -0.41684    -0.83131     0.04169    -0.00958
  in kB     -21.57843   -21.29769    -0.21022    -0.41925     0.02103    -0.00483

 VOLUME and BASIS-vectors are now :
  energy-cutoff  :      500.00
  volume of cell :     3176.87
      direct lattice vectors                 reciprocal lattice vectors
    12.751800000  0.000000000  0.000000000     0.078420301  0.000690386  0.000001526
    -0.108404169 12.313522832  0.000000000     0.000000000  0.081211528 -0.000029751
    -0.000459056  0.007411771 20.232298637     0.000000000  0.000000000  0.049425921

  length of vectors
    12.751800000 12.314000000 20.232300000     0.078423340  0.081211533  0.049425921

 FORCES acting on ions:
    Electron-Ion                     Ewald-Force                    Non-Local-Force
   0.286E+00 0.791E+00 -.259E+00   -.671E+00 -.673E+00 0.261E+00   0.421E+00 -.426E-01 -.211E-02
   0.208E+00 -.362E+01 -.556E+00   -.188E+00 0.354E+01 0.555E+00   -.234E-01 0.298E-01 -.316E-03
   0.128E+01 0.138E+01 -.355E+00   -.146E+01 -.139E+01 0.355E+00   0.940E-01 0.833E-02 -.249E-03
   0.522E+01 0.124E+01 -.120E-01   -.562E+01 -.151E+01 0.870E-02   0.308E+00 0.185E+00 0.267E-02
   0.564E+01 -.843E+01 -.204E+00   -.604E+01 0.858E+01 0.202E+00   0.418E+00 -.833E-01 -.185E-02
   0.104E+01 -.480E+01 -.473E+00   -.113E+01 0.464E+01 0.471E+00   0.165E+00 0.138E+00 0.120E-02
   -.172E+01 -.128E+01 -.568E+00   0.133E+01 0.140E+01 0.569E+00   0.312E+00 -.751E-01 -.271E-02
   0.237E+02 -.247E+02 0.333E+00   -.272E+02 0.250E+02 -.315E+00   0.329E+01 -.245E+00 -.182E-01
   -.885E+01 0.128E+02 -.132E+00   0.739E+01 -.154E+02 0.129E+00   0.132E+01 0.237E+01 0.316E-02
   0.515E+01 0.219E+01 -.290E+00   -.524E+01 -.230E+01 0.291E+00   -.639E-01 0.823E-01 -.226E-02
   -.899E+01 0.107E+01 -.348E+00   0.899E+01 -.151E+01 0.348E+00   0.105E+00 0.389E+00 -.937E-03
   -.120E+02 -.119E+02 -.447E+00   0.102E+02 0.143E+02 0.448E+00   0.161E+01 -.223E+01 -.119E-02
   0.295E+01 0.509E+01 0.598E-01   -.313E+01 -.485E+01 -.597E-01   0.236E+00 -.145E+00 0.106E-02
   -.529E+01 -.394E+01 -.150E+00   0.519E+01 0.431E+01 0.148E+00   0.286E+00 -.334E+00 0.189E-02
   0.807E+01 0.225E+02 -.401E+00   -.115E+02 -.228E+02 0.398E+00   0.332E+01 0.183E+00 0.178E-02
   0.185E+01 0.723E+01 -.197E+00   -.234E+01 -.721E+01 0.198E+00   0.534E+00 -.950E-02 -.162E-03
   0.157E+01 0.191E+01 -.158E+00   -.161E+01 -.177E+01 0.158E+00   0.424E-01 -.816E-01 0.331E-03
   -.844E+00 0.212E+01 -.139E-01   0.300E+00 -.222E+01 0.123E-01   0.446E+00 0.293E-01 0.247E-02
   0.135E+00 0.928E+00 -.242E+00   -.388E+00 -.619E+00 0.241E+00   0.213E+00 -.331E+00 0.336E-03
   -.519E+01 0.899E+01 -.687E-01   0.476E+01 -.898E+01 0.668E-01   0.285E+00 0.654E-01 0.148E-02
   -.304E+00 0.826E+01 0.209E+00   0.550E+00 -.878E+01 -.208E+00   -.976E-01 0.510E+00 -.232E-02
   0.260E+01 0.336E+01 -.826E-01   -.216E+01 -.331E+01 0.820E-01   -.321E+00 0.493E-02 -.238E-03
   0.954E+00 0.782E+01 0.117E-01   -.120E+01 -.837E+01 -.105E-01   0.190E+00 0.524E+00 -.221E-02
   0.138E+02 0.193E+02 0.614E+00   -.152E+02 -.222E+02 -.609E+00   0.130E+01 0.276E+01 -.320E-02
   -.109E+02 0.155E+02 0.945E+00   0.123E+02 -.184E+02 -.930E+00   -.129E+01 0.282E+01 -.128E-01
   0.168E+02 0.154E+02 -.209E+00   -.178E+02 -.130E+02 0.209E+00   0.108E+01 -.232E+01 0.142E-02
   -.603E+01 0.647E+01 -.280E+00   0.634E+01 -.604E+01 0.281E+00   -.221E+00 -.556E+00 -.159E-02
   -.297E+02 0.731E+01 -.291E+00   0.313E+02 -.440E+01 0.288E+00   -.170E+01 -.278E+01 0.308E-02
   0.518E+01 0.897E+01 -.215E+00   -.543E+01 -.867E+01 0.216E+00   0.236E+00 -.404E+00 -.185E-02
   -.481E+00 0.124E+01 -.421E+00   0.645E+00 -.121E+01 0.421E+00   -.686E-01 -.228E-01 -.428E-03
   -.543E+01 0.390E+01 -.337E+00   0.575E+01 -.423E+01 0.336E+00   -.294E+00 0.218E+00 -.388E-03
   0.108E+01 0.562E+01 -.391E+00   -.727E+00 -.557E+01 0.393E+00   -.407E+00 0.915E-02 -.246E-02
   -.172E+00 -.517E+00 -.599E+00   0.188E+00 0.422E+00 0.599E+00   -.145E-01 0.310E-01 -.882E-03
   0.827E+00 -.186E+01 -.644E+00   -.348E+00 0.204E+01 0.645E+00   -.380E+00 -.883E-01 -.187E-02
   -.254E+02 -.258E+02 -.168E+00   0.289E+02 0.262E+02 0.180E+00   -.339E+01 -.475E+00 -.124E-01
   -.709E+01 -.540E+01 -.515E+00   0.751E+01 0.560E+01 0.514E+00   -.462E+00 -.679E-01 -.191E-02
   -.272E+01 -.421E+01 -.508E+00   0.289E+01 0.402E+01 0.507E+00   -.246E+00 0.979E-01 -.156E-03
   0.636E+01 0.200E+01 -.262E+00   -.647E+01 -.248E+01 0.261E+00   0.132E-01 0.464E+00 0.805E-03
   0.846E+01 0.127E+02 -.134E+00   -.689E+01 -.148E+02 0.135E+00   -.147E+01 0.201E+01 -.547E-04
   -.360E+01 -.430E+01 -.167E+00   0.359E+01 0.433E+01 0.167E+00   0.108E+00 -.488E-01 0.183E-03
   0.131E+02 -.410E+01 0.347E-01   -.133E+02 0.455E+01 -.347E-01   0.726E-01 -.436E+00 0.104E-02
   -.221E+01 0.323E+02 -.720E-01   0.506E+01 -.326E+02 0.707E-01   -.287E+01 0.385E+00 0.777E-03
   0.229E+02 -.290E+02 -.316E-01   -.215E+02 0.311E+02 0.304E-01   -.131E+01 -.222E+01 0.157E-02
   0.291E+01 0.272E+01 0.133E+00   -.285E+01 -.254E+01 -.133E+00   -.128E+00 -.903E-01 0.114E-02
   0.779E+01 0.348E+01 0.513E-01   -.741E+01 -.363E+01 -.518E-01   -.273E+00 0.710E-01 0.165E-02
   -.250E+01 0.597E+01 -.202E+00   0.278E+01 -.575E+01 0.201E+00   -.297E+00 -.194E+00 0.141E-02
   0.211E+01 0.153E+02 -.611E-01   -.182E+01 -.156E+02 0.620E-01   -.343E+00 0.239E+00 -.385E-03
   0.283E+01 0.558E+01 -.152E+00   -.286E+01 -.552E+01 0.152E+00   0.322E-01 -.117E-02 0.230E-03
   -.133E+03 -.770E+01 -.687E+00   0.158E+03 0.840E+01 0.678E+00   -.230E+02 -.579E+00 0.183E-02
   -.525E+01 -.744E+02 0.253E+01   0.149E+02 0.916E+02 -.265E+01   -.912E+01 -.164E+02 0.122E+00
   0.131E+02 -.869E+02 0.851E+00   -.238E+02 0.106E+03 -.899E+00   0.998E+01 -.181E+02 0.479E-01
   -.752E+02 0.120E+03 -.718E+00   0.868E+02 -.140E+03 0.745E+00   -.108E+02 0.190E+02 -.248E-01
   0.705E+02 0.139E+03 -.326E+00   -.836E+02 -.162E+03 0.329E+00   0.123E+02 0.211E+02 -.444E-02
   0.151E+03 -.162E+02 -.190E+00   -.181E+03 0.154E+02 0.183E+00   0.282E+02 0.781E+00 0.319E-02
   -.366E+02 -.163E+03 0.818E+01   0.413E+02 0.133E+03 -.833E+01   -.259E+01 0.233E+02 0.867E-01
   -.200E+02 -.486E+02 -.155E+01   0.139E+02 0.661E+02 0.168E+01   0.383E+01 -.888E+01 -.431E-01
   -.105E+02 -.202E+02 -.141E+00   -.270E-12 -.171E-12 -.222E-15   0.955E+01 0.205E+02 0.144E+00

 POSITION                                       TOTAL-FORCE (eV/Angst)
      2.83385      0.03368     10.11631         0.056356      0.072573     -0.000788
      0.70900      1.26424     10.11785        -0.005517     -0.050925     -0.000941
      1.40737      0.02514     10.11716        -0.077991      0.000114     -0.000562
      3.53932      1.27209     10.11462        -0.072350     -0.073171     -0.000550
      2.85476      2.52435     10.11491         0.042904      0.058331     -0.003080
      0.70832      3.73550     10.11731         0.083906     -0.017987     -0.000908
      1.42098      2.50731     10.11725        -0.064442      0.046715     -0.001447
      3.60574      3.75674     10.11183        -0.098781      0.088068     -0.001100
      2.88388      5.02403     10.11491        -0.056012     -0.146853      0.000201
      0.67021      6.17798     10.11662        -0.138740     -0.014274     -0.001312
      1.42721      4.96832     10.11655         0.093029     -0.035981     -0.000987
      2.80592      7.38990     10.11688        -0.078392      0.063606     -0.000345
      0.62183      8.62825     10.11587         0.075680      0.090505      0.001284
      1.36783      7.40997     10.11638         0.197091      0.014558      0.000698
      3.48843      8.65942     10.11713         0.066009     -0.055345     -0.000861
      2.73881      9.87301     10.11666         0.073567      0.011292      0.000227
      0.59568     11.09790     10.11672         0.007169      0.048414      0.000400
      1.31201      9.86593     10.11624        -0.076242     -0.068577      0.001047
      3.43395     11.11145     10.11649        -0.025930     -0.042669     -0.000624
      6.96886     12.30873     10.11497        -0.137894      0.081007     -0.000322
      4.96347      1.26297     10.11296         0.139929      0.024148     -0.001200
      5.66713      0.01729     10.11484         0.113166      0.054295     -0.000875
      7.77737      1.23573     10.11401        -0.041903      0.001439     -0.001126
      7.09619      2.48503     10.11067        -0.023630      0.059209      0.001294
      5.64620      2.50406     10.10927         0.006758      0.021582      0.001897
      6.98930      9.80146     10.11626         0.154213     -0.080508      0.000696
      4.85792     11.09775     10.11625         0.068483     -0.155076     -0.001221
      5.53944      9.84260     10.11668        -0.199116     -0.036196      0.000283
      7.66919     11.06208     10.11605         0.002781     -0.130967     -0.000896
     11.32839      0.00903     10.11749         0.089405      0.001332     -0.000527
      9.19912      1.23525     10.11603         0.001121     -0.101446     -0.001276
      9.79531     12.31139     10.11693        -0.074092      0.058750     -0.001028
     12.03017      1.25193     10.11811         0.001115     -0.061902     -0.000789
     11.31767      2.48839     10.11785         0.082133      0.090955     -0.001084
      9.12982      3.70143     10.11401        -0.024398     -0.057342     -0.001287
      9.88656      2.48444     10.11646        -0.072184      0.122775     -0.002954
     12.02073      3.72315     10.11750        -0.098215     -0.089071     -0.001035
     11.27796      4.93927     10.11638        -0.084769      0.019434     -0.000192
      9.83439      4.97529     10.11505         0.011114      0.066648      0.001113
     11.97930      6.17008     10.11623         0.095067     -0.035566     -0.000120
     11.22829      7.38352     10.11554        -0.111086     -0.003492      0.001148
      9.01355      8.58156     10.11570        -0.181410      0.141253     -0.000531
      9.77595      7.31999     10.11527         0.028610     -0.260663      0.000446
     11.93735      8.61526     10.11552        -0.077791      0.083993      0.001502
     11.21092      9.83674     10.11586         0.103112     -0.073542      0.001228
      9.09001     11.06677     10.11635        -0.033548      0.013575     -0.000204
      9.77277      9.81379     10.11596        -0.074465     -0.057194      0.000467
     11.91822     11.08260     10.11670         0.002658      0.060179      0.000697
      3.55726      6.23079     10.11614        -0.002838      0.065717     -0.007203
      4.98495      3.72531     10.10603        -0.250135     -0.570961      0.015978
      7.76969      3.68119     10.10999         0.141115     -0.470848      0.004078
      4.85327      8.66668     10.11738        -0.137456      0.192115      0.000177
      7.63536      8.58202     10.11610         0.288198      0.487404     -0.001088
      9.12507      6.13317     10.11483         0.595960      0.083320     -0.003603
      6.35273      5.10026     10.09876         0.658039     -1.951219     -0.013987
      5.90371      6.78775     10.11615        -0.959360      2.418466      0.021190
    total drift:                               -0.004323     -0.004545      0.000174

  FREE ENERGIE OF THE ION-ELECTRON SYSTEM (eV)
  free  energy   TOTEN  =      -586.65838140 eV

  energy  without entropy=     -586.65793112  energy(sigma->0) =     -586.65815626

 stress matrix after NEB project (eV)
    -42.78664     -0.83156     -0.00958
     -0.83131    -42.22998      0.04170
     -0.00960      0.04169     -0.41684
  FORCES: max atom, RMS     2.601884    0.483026
  FORCE total and by dimension    3.614639    2.418466
  Stress total and by dimension   60.130093   42.786643
 writing wavefunctions

 total charge

[...]

 magnetization (x)

# of ion       s       p       d       tot
    1       -0.000  -0.003   0.000  -0.003
    2        0.000   0.005   0.000   0.005
    3       -0.000  -0.002   0.000  -0.002
    4        0.000   0.006   0.000   0.006
    5       -0.000   0.003   0.000   0.003
    6        0.000   0.003   0.000   0.003
    7       -0.000  -0.002   0.000  -0.002
    8        0.000   0.011   0.000   0.011
    9        0.001   0.019   0.000   0.020
   10        0.002   0.039   0.000   0.041
   11       -0.001  -0.005   0.000  -0.006
   12        0.002   0.033   0.000   0.035
   13        0.000   0.004   0.000   0.004
   14       -0.001  -0.009   0.000  -0.011
   15        0.000   0.005   0.000   0.005
   16        0.000   0.001   0.000   0.001
   17        0.001   0.008   0.000   0.009
   18       -0.000  -0.000   0.000  -0.000
   19        0.000   0.002   0.000   0.002
   20       -0.000  -0.007   0.000  -0.007
   21       -0.000   0.002   0.000   0.002
   22        0.000   0.002   0.000   0.002
   23        0.000   0.006   0.000   0.007
   24       -0.001  -0.008   0.000  -0.009
   25        0.000   0.009   0.000   0.009
   26       -0.000  -0.004   0.000  -0.004
   27        0.000   0.006   0.000   0.006
   28        0.000   0.003   0.000   0.003
   29        0.000   0.002   0.000   0.002
   30        0.001   0.009   0.000   0.010
   31       -0.000   0.001   0.000   0.000
   32       -0.000  -0.001   0.000  -0.001
   33       -0.000  -0.003   0.000  -0.004
   34        0.001   0.012   0.000   0.012
   35        0.001   0.010   0.000   0.011
   36       -0.000  -0.001   0.000  -0.001
   37       -0.000  -0.005   0.000  -0.005
   38        0.001   0.008   0.000   0.008
   39       -0.001  -0.001   0.000  -0.002
   40       -0.001  -0.005   0.000  -0.005
   41        0.001   0.018   0.000   0.019
   42        0.000   0.006   0.000   0.007
   43       -0.001  -0.012   0.000  -0.013
   44       -0.001  -0.008   0.000  -0.009
   45        0.001   0.013   0.000   0.014
   46       -0.000  -0.002   0.000  -0.002
   47       -0.000  -0.000   0.000  -0.000
   48       -0.001  -0.005   0.000  -0.006
   49       -0.001   0.018   0.000   0.017
   50       -0.001   0.003   0.000   0.003
   51        0.002   0.028   0.000   0.029
   52        0.000   0.010   0.000   0.010
   53       -0.001  -0.006   0.000  -0.007
   54        0.002   0.048   0.000   0.050
   55        0.017   0.028  -1.990  -1.946
   56        0.062   0.045   1.250   1.358
tot          0.084   0.335  -0.740  -0.322