 vasp.5.4.4.18Apr17-6-g9f103f2a35 (build Feb 25 2019 10:51:38) complex

 executed on             LinuxIFC date 2021.08.09  13:01:08

 INCAR:
 POTCAR:    PAW_PBE C 08Apr2002
 POTCAR:    PAW_PBE N 08Apr2002
 POTCAR:    PAW_PBE Fe 06Sep2000

 POTCAR:    PAW_PBE C 08Apr2002
   VRHFIN =C: s2p2

   TITEL  = PAW_PBE C 08Apr2002
   POMASS =   12.011; ZVAL   =    4.000    mass and valenz
   ENMAX  =  400.000; ENMIN  =  300.000 eV

 POTCAR:    PAW_PBE N 08Apr2002
   VRHFIN =N: s2p3

   TITEL  = PAW_PBE N 08Apr2002
   POMASS =   14.001; ZVAL   =    5.000    mass and valenz
   ENMAX  =  400.000; ENMIN  =  300.000 eV

 POTCAR:    PAW_PBE Fe 06Sep2000
   VRHFIN =Fe:  d7 s1

   TITEL  = PAW_PBE Fe 06Sep2000
   POMASS =   55.847; ZVAL   =    8.000    mass and valenz
   ENMAX  =  267.882; ENMIN  =  200.911 eV

  PAW_PBE C 08Apr2002                   :
  PAW_PBE N 08Apr2002                   :
  PAW_PBE Fe 06Sep2000                  :

 POSCAR:  C  N Fe
  positions in cartesian coordinates
 exchange correlation table for  LEXCH =        8
   RHO(1)=    0.500       N(1)  =     2000
   RHO(2)=  100.500       N(2)  =     4000

 VTST: version 3.2, (02/03/18)

 CHAIN: initializing optimizer

 OPT: Using VASP Conjugate-Gradient optimizer
 CHAIN: Read ICHAIN            0

 POSCAR:  C  N Fe
  positions in cartesian coordinates

 ion  position               nearest neighbor table
   1  0.221  0.999  0.500-   4 1.42  19 1.43   3 1.43
   2  0.052  0.101  0.500-   7 1.42   3 1.43  34 1.43
   3  0.110  0.000  0.500-  17 1.42   2 1.43   1 1.43
   4  0.275  0.099  0.500-   1 1.42   5 1.42  21 1.42
   5  0.218  0.199  0.500-   8 1.41   4 1.42   7 1.43
   6  0.052  0.301  0.500-   7 1.41  11 1.43  38 1.43
   7  0.107  0.200  0.500-   6 1.41   2 1.42   5 1.43
   8  0.273  0.298  0.500-  51 1.38   5 1.41   9 1.42
   9  0.218  0.399  0.500-  50 1.39  11 1.41   8 1.42
  10  0.055  0.501  0.500-  11 1.41  41 1.42  14 1.44
  11  0.108  0.400  0.500-   9 1.41  10 1.41   6 1.43
  12  0.226  0.595  0.500-  50 1.39  14 1.44  15 1.47
  13  0.058  0.701  0.500-  18 1.42  14 1.43  45 1.43
  14  0.114  0.599  0.500-  13 1.43  10 1.44  12 1.44
  15  0.285  0.696  0.500-  53 1.38  16 1.45  12 1.47
  16  0.225  0.797  0.500-  19 1.43  18 1.44  15 1.45
  17  0.056  0.901  0.500-   3 1.42  18 1.43  49 1.43
  18  0.113  0.800  0.500-  13 1.42  17 1.43  16 1.44
  19  0.279  0.898  0.500-  16 1.43  28 1.43   1 1.43
  20  0.554  0.002  0.500-  22 1.42  30 1.43  23 1.44
  21  0.386  0.102  0.500-   4 1.42  22 1.44  25 1.45
  22  0.443  0.000  0.500-  20 1.42  21 1.44  28 1.45
  23  0.606  0.105  0.500-  32 1.44  24 1.44  20 1.44
  24  0.549  0.206  0.500-  23 1.44  25 1.44  26 1.46
  25  0.438  0.205  0.500-  51 1.38  24 1.44  21 1.45
  26  0.605  0.309  0.500-  52 1.34  36 1.45  24 1.46
  27  0.558  0.796  0.500-  54 1.38  30 1.45  29 1.47
  28  0.390  0.898  0.500-  19 1.43  22 1.45  29 1.45
  29  0.444  0.793  0.500-  53 1.38  28 1.45  27 1.47
  30  0.610  0.900  0.500-  20 1.43  47 1.43  27 1.45
  31  0.887  0.003  0.500-  34 1.42  49 1.43  33 1.44
  32  0.718  0.106  0.500-  33 1.43  23 1.44  37 1.44
  33  0.775  0.004  0.500-  47 1.43  32 1.43  31 1.44
  34  0.941  0.103  0.500-  31 1.42  35 1.43   2 1.43
  35  0.885  0.204  0.500-  38 1.42  34 1.43  37 1.44
  36  0.717  0.309  0.500-  37 1.43  26 1.45  40 1.45
  37  0.773  0.207  0.500-  36 1.43  35 1.44  32 1.44
  38  0.940  0.303  0.500-  39 1.42  35 1.42   6 1.43
  39  0.886  0.405  0.500-  38 1.42  41 1.43  40 1.43
  40  0.775  0.410  0.500-  55 1.38  39 1.43  36 1.45
  41  0.945  0.503  0.500-  42 1.42  10 1.42  39 1.43
  42  0.890  0.604  0.500-  44 1.41  41 1.42  45 1.42
  43  0.723  0.705  0.500-  54 1.39  48 1.41  44 1.43
  44  0.781  0.605  0.500-  55 1.38  42 1.41  43 1.43
  45  0.947  0.703  0.500-  46 1.42  42 1.42  13 1.43
  46  0.890  0.803  0.500-  45 1.42  49 1.42  48 1.43
  47  0.721  0.904  0.500-  48 1.42  33 1.43  30 1.43
  48  0.779  0.804  0.500-  43 1.41  47 1.42  46 1.43
  49  0.944  0.903  0.500-  46 1.42  31 1.43  17 1.43
  50  0.276  0.494  0.499-  12 1.39   9 1.39  56 1.89
  51  0.380  0.302  0.499-   8 1.38  25 1.38  56 1.94
  52  0.551  0.403  0.500-  26 1.34  57 1.80  56 1.80
  53  0.392  0.696  0.500-  15 1.38  29 1.38
  54  0.616  0.701  0.500-  27 1.38  43 1.39  57 1.96
  55  0.725  0.510  0.501-  40 1.38  44 1.38  57 1.96
  56  0.419  0.453  0.499-  52 1.80  50 1.89  51 1.94  57 2.34
  57  0.576  0.547  0.500-  52 1.80  55 1.96  54 1.96  56 2.34

  LATTYP: Found a triclinic cell.
 ALAT       =    12.8666476171
 B/A-ratio  =     0.9535985918
 C/A-ratio  =     1.5642302523
 COS(alpha) =     0.0005570913
 COS(beta)  =     0.0012773663
 COS(gamma) =     0.0167971747

  Lattice vectors:

 A1 = (  12.8662017614,   0.1067816084,   0.0084157630)
 A2 = (   0.1042731732,  12.2691734845,   0.0034116144)
 A3 = (   0.0124993007,   0.0055099937,  20.1263948131)

Analysis of symmetry for initial positions (statically):
 Subroutine PRICEL returns:
 Original cell was already a primitive cell.

 Routine SETGRP: Setting up the symmetry group for a
 triclinic supercell.

 Subroutine GETGRP returns: Found  1 space group operations
 (whereof  1 operations were pure point group operations)
 out of a pool of  2 trial point group operations.

The static configuration has the point symmetry C_1 .

Analysis of symmetry for dynamics (positions and initial velocities):
 Subroutine PRICEL returns:
 Original cell was already a primitive cell.

[...]

The dynamic configuration has the point symmetry C_1 .

Analysis of structural, dynamic, and magnetic symmetry:
 Subroutine PRICEL returns:
 Original cell was already a primitive cell.

 Routine SETGRP: Setting up the symmetry group for a
 triclinic supercell.

 Subroutine GETGRP returns: Found  1 space group operations
 (whereof  1 operations were pure point group operations)
 out of a pool of  2 trial point group operations.

The magnetic configuration has the point symmetry C_1 .

 Subroutine INISYM returns: Found  1 space group operations
 (whereof  1 operations are pure point group operations),
 and found     1 'primitive' translations

 KPOINTS: KPOINTS created by Atomic Simulation Env

Automatic generation of k-mesh.
Space group operators:
 irot       det(A)        alpha          n_x          n_y          n_z        tau_x        tau_y        tau_z
    1     1.000000     0.000000     1.000000     0.000000     0.000000     0.000000     0.000000     0.000000

 Subroutine IBZKPT returns following result:

 Found      2 irreducible k-points:

 Following reciprocal coordinates:
            Coordinates               Weight
  0.250000  0.250000 -0.000000      2.000000
 -0.250000  0.250000  0.000000      2.000000

 Following cartesian coordinates:
            Coordinates               Weight
  0.019263  0.020213 -0.000017      2.000000
 -0.019601  0.020543  0.000007      2.000000

 Subroutine IBZKPT_HF returns following result:

 Found      4 k-points in 1st BZ
 the following      4 k-points will be used (e.g. in the exchange kernel)
 Following reciprocal coordinates:   # in IRBZ
  0.250000  0.250000 -0.000000    0.25000000   1 t-inv F
 -0.250000  0.250000  0.000000    0.25000000   2 t-inv F
 -0.250000 -0.250000  0.000000    0.25000000   1 t-inv T
  0.250000 -0.250000 -0.000000    0.25000000   2 t-inv T

 SYSTEM =  unknown system
 POSCAR =   C  N Fe

 Startparameter for this run:
   NWRITE =      2    write-flag & timer
   PREC   = accura    normal or accurate (medium, high low for compatibility)
   ISTART =      1    job   : 0-new  1-cont  2-samecut
   ICHARG =      0    charge: 1-file 2-atom 10-const
   ISPIN  =      2    spin polarized calculation?
   LNONCOLLINEAR =      F non collinear calculations
   LSORBIT =      F    spin-orbit coupling
   INIWAV =      1    electr: 0-lowe 1-rand  2-diag
   LASPH  =      T    aspherical Exc in radial PAW
   METAGGA=      F    non-selfconsistent MetaGGA calc.

 Electronic Relaxation 1
   ENCUT  =  500.0 eV  36.75 Ry    6.06 a.u.  23.46 22.37 36.70*2*pi/ulx,y,z
   ENINI  =  500.0     initial cutoff
   ENAUG  =  644.9 eV  augmentation charge cutoff
   NELM   =    250;   NELMIN=  2; NELMDL=  0     # of ELM steps
   EDIFF  = 0.1E-03   stopping-criterion for ELM
   LREAL  =      F    real-space projection
   NLSPLINE    = F    spline interpolate recip. space projectors
   LCOMPAT=      F    compatible to vasp.4.4
   GGA_COMPAT  = T    GGA compatible to vasp.4.4-vasp.4.6
   LMAXPAW     = -100 max onsite density
   LMAXMIX     =    2 max onsite mixed and CHGCAR
   VOSKOWN=      0    Vosko Wilk Nusair interpolation
   ROPT   =    0.00000   0.00000   0.00000
 Ionic relaxation
   EDIFFG = -.3E-01   stopping-criterion for IOM
   NSW    =      0    number of steps for IOM
   NBLOCK =      1;   KBLOCK =      1    inner block; outer block
   IBRION =     -1    ionic relax: 0-MD 1-quasi-New 2-CG
   NFREE  =      1    steps in history (QN), initial steepest desc. (CG)
   ISIF   =      2    stress and relaxation
   IWAVPR =     10    prediction:  0-non 1-charg 2-wave 3-comb
   ISYM   =      3    0-nonsym 1-usesym 2-fastsym
   LCORR  =      T    Harris-Foulkes like correction to forces

   POTIM  = 0.5000    time-step for ionic-motion
   TEIN   =    0.0    initial temperature
   TEBEG  =    0.0;   TEEND  =   0.0 temperature during run
   SMASS  =  -3.00    Nose mass-parameter (am)
   estimated Nose-frequenzy (Omega)   =  0.10E-29 period in steps =****** mass=  -0.378E-26a.u.
   SCALEE = 1.0000    scale energy and forces
   NPACO  =    256;   APACO  = 16.0  distance and # of slots for P.C.
   PSTRESS=    0.0 pullay stress

  Mass of Ions in am
   POMASS =  12.01 14.00 55.85
  Ionic Valenz
   ZVAL   =   4.00  5.00  8.00
  Atomic Wigner-Seitz radii
  virtual crystal weights
   VCA    =   1.00  1.00  1.00
   NELECT =     242.0000    total number of electrons
   NUPDOWN=      -1.0000    fix difference up-down

 DOS related values:
   EMIN   =  10.00;   EMAX   =-10.00  energy-range for DOS
   EFERMI =   0.00
   ISMEAR =     0;   SIGMA  =   0.10  broadening in eV -4-tet -1-fermi 0-gaus

 Electronic relaxation 2 (details)
   IALGO  =     53    algorithm
   LDIAG  =      T    sub-space diagonalisation (order eigenvalues)
   LSUBROT=      F    optimize rotation matrix (better conditioning)
   TURBO    =      0    0=normal 1=particle mesh
   IRESTART =      0    0=no restart 2=restart with 2 vectors
   NREBOOT  =      0    no. of reboots
   NMIN     =      0    reboot dimension
   EREF     =   0.00    reference energy to select bands
   IMIX   =      4    mixing-type and parameters
     AMIX     =   0.40;   BMIX     =  1.00
     AMIX_MAG =   1.60;   BMIX_MAG =  1.00
     AMIN     =   0.10
     WC   =   100.;   INIMIX=   1;  MIXPRE=   1;  MAXMIX= -45

 Intra band minimization:
   WEIMIN = 0.0000     energy-eigenvalue tresh-hold
   EBREAK =  0.16E-06  absolut break condition
   DEPER  =   0.30     relativ break condition

   TIME   =   0.20     timestep for ELM

  volume/ion in A,a.u.               =      55.73       376.12
  Fermi-wavevector in a.u.,A,eV,Ry     =   0.693979  1.311430  6.552660  0.481607
  Thomas-Fermi vector in A             =   1.776344

 Write flags
   LWAVE        =      T    write WAVECAR
[...]
   27        0.851   1.704   0.000   2.555
   28        0.861   1.749   0.000   2.610
   29        0.849   1.702   0.000   2.552
   30        0.861   1.754   0.000   2.615
   31        0.865   1.773   0.000   2.638
   32        0.861   1.760   0.000   2.621
   33        0.863   1.763   0.000   2.626
   34        0.867   1.769   0.000   2.636
   35        0.865   1.768   0.000   2.633
   36        0.855   1.761   0.000   2.616
   37        0.862   1.747   0.000   2.609
   38        0.868   1.775   0.000   2.643
   39        0.866   1.776   0.000   2.642
   40        0.856   1.716   0.000   2.572
   41        0.870   1.783   0.000   2.652
   42        0.873   1.800   0.000   2.673
   43        0.863   1.755   0.000   2.618
   44        0.865   1.768   0.000   2.633
   45        0.867   1.782   0.000   2.649
   46        0.868   1.783   0.000   2.650
   47        0.868   1.766   0.000   2.634
   48        0.869   1.784   0.000   2.653
   49        0.867   1.771   0.000   2.638
   50        1.229   2.673   0.000   3.902
   51        1.229   2.661   0.000   3.890
   52        1.248   2.646   0.000   3.894
   53        1.239   2.594   0.000   3.833
   54        1.229   2.675   0.000   3.904
   55        1.236   2.669   0.000   3.905
   56        0.441   0.581   6.346   7.368
   57        0.446   0.584   6.163   7.193
tot         50.609 103.379  12.509 166.497

 magnetization (x)

[...]

  FORCE on cell =-STRESS in cart. coord.  units (eV):
  Direction    XX          YY          ZZ          XY          YZ          ZX
  Alpha Z    99.66609    99.66609    99.66609
  Ewald   47818.50342 47802.70010-56300.39228   -10.74853    25.70510    66.97940
  Hartree 47253.92843 47219.48534-46646.94168    11.23784    24.60118    61.74745
  E(xc)    -710.90590  -710.46315  -724.66641    -0.24577    -0.01656    -0.03181
  Local  -97668.72042-97606.27724 99861.29699    -7.63636   -50.57374  -129.06587
  n-local  -167.81682  -170.62107  -164.42814    -0.71272     0.16174     0.20910
  augment    54.05709    51.36543    59.78548     0.84575     0.09684     0.24452
  Kinetic  3618.32918  3602.53280  4129.54477     9.26340     0.11396     0.10827
  Fock     -333.42429  -330.81000  -314.27895    -1.19582    -0.07963    -0.17146
  Total     -36.38323   -42.42171    -0.41412     0.80779     0.00888     0.01960
  in kB     -18.34894   -21.39429    -0.20885     0.40739     0.00448     0.00988

 VOLUME and BASIS-vectors are now :
  energy-cutoff  :      500.00
  volume of cell :     3176.88
      direct lattice vectors                 reciprocal lattice vectors
    12.866201761  0.106781608  0.008415763     0.077728529 -0.000660585 -0.000048092
     0.104273173 12.269173484  0.003411614    -0.000676476  0.081510838 -0.000021895
     0.012499301  0.005509994 20.126394813    -0.000032387 -0.000013541  0.049686021

  length of vectors
    12.866647617 12.269617049 20.126399449     0.077731351  0.081513648  0.049686034

 FORCES acting on ions:
    Electron-Ion                     Ewald-Force                    Non-Local-Force
   0.957E+00 0.733E+01 -.778E+00   -.121E+01 -.735E+01 0.781E+00   0.326E+00 0.290E-01 -.750E-02
   0.472E+01 0.563E+01 -.481E+00   -.473E+01 -.580E+01 0.482E+00   0.952E-01 0.133E+00 -.239E-02
   -.195E+01 0.138E+01 -.401E+00   0.182E+01 -.137E+01 0.398E+00   -.499E-02 0.139E-01 0.229E-02
   0.984E+00 0.134E+02 -.375E+00   -.113E+01 -.138E+02 0.371E+00   0.718E-01 0.413E+00 0.108E-02
   0.125E+02 0.141E+02 -.847E-01   -.130E+02 -.143E+02 0.873E-01   0.420E+00 0.250E+00 -.302E-02
   0.759E+01 0.206E+01 -.339E+00   -.775E+01 -.245E+01 0.337E+00   0.251E+00 0.340E+00 -.347E-03
   0.337E+01 0.736E+01 -.574E+00   -.380E+01 -.739E+01 0.577E+00   0.369E+00 0.540E-01 -.748E-02
   0.337E+02 0.151E+02 0.112E+01   -.369E+02 -.155E+02 -.112E+01   0.325E+01 0.202E+00 -.320E-02
   0.265E+02 0.127E+02 0.141E+01   -.281E+02 -.153E+02 -.140E+01   0.192E+01 0.269E+01 -.489E-02
   0.360E+01 -.885E+01 0.138E+00   -.360E+01 0.898E+01 -.144E+00   0.149E+00 -.256E+00 0.622E-02
   0.127E+02 0.565E+01 0.381E+00   -.134E+02 -.600E+01 -.375E+00   0.417E+00 0.327E+00 -.296E-02
   -.345E+01 -.404E+02 0.337E+00   0.218E+01 0.433E+02 -.323E+00   0.126E+01 -.317E+01 -.210E-01
   -.215E+01 -.241E+01 0.859E-01   0.221E+01 0.271E+01 -.837E-01   0.403E-01 -.231E+00 -.618E-03
   -.157E+01 -.989E+01 0.127E+00   0.151E+01 0.104E+02 -.127E+00   0.996E-01 -.346E+00 0.837E-03
   0.146E+02 0.100E+02 0.150E-01   -.169E+02 -.964E+01 -.191E-01   0.240E+01 -.175E+00 0.558E-02
   0.253E+01 0.308E+01 -.326E+00   -.278E+01 -.342E+01 0.328E+00   0.283E+00 0.263E+00 -.191E-02
   0.539E+00 0.259E+01 0.113E-01   -.482E+00 -.252E+01 -.907E-02   -.103E-02 -.113E-01 -.183E-02
   -.660E+01 -.450E+01 -.612E-01   0.633E+01 0.445E+01 0.588E-01   0.154E+00 -.315E-01 0.596E-03
   0.122E+00 -.327E+00 -.644E+00   -.244E+00 0.509E+00 0.642E+00   0.109E+00 -.116E+00 -.615E-03
   -.387E+01 -.217E+00 0.544E-02   0.388E+01 0.460E+00 -.949E-02   0.640E-01 -.215E+00 0.308E-02
   -.761E+01 0.132E+02 0.385E-02   0.776E+01 -.138E+02 -.278E-02   -.656E-01 0.395E+00 -.567E-03
   0.247E+01 0.770E+01 -.318E+00   -.208E+01 -.761E+01 0.319E+00   -.443E+00 0.591E-02 -.339E-02
   -.113E+01 0.598E+01 0.190E+00   0.105E+01 -.603E+01 -.186E+00   -.340E-02 -.252E-01 -.315E-02
   -.896E+01 0.125E+02 0.810E+00   0.947E+01 -.123E+02 -.819E+00   -.282E+00 -.146E+00 0.138E-01
   -.227E+02 0.362E+02 0.849E+00   0.247E+02 -.387E+02 -.837E+00   -.228E+01 0.289E+01 -.120E-01
   -.266E+02 0.465E+02 -.255E+00   0.283E+02 -.493E+02 0.271E+00   -.165E+01 0.276E+01 -.144E-01
   0.329E+02 -.208E+02 -.532E+00   -.349E+02 0.238E+02 0.532E+00   0.220E+01 -.294E+01 -.589E-02
   -.725E+01 -.118E+01 -.520E+00   0.761E+01 0.134E+01 0.517E+00   -.309E+00 -.149E+00 0.620E-05
   -.172E+02 -.915E+01 -.451E+00   0.178E+02 0.113E+02 0.449E+00   -.922E+00 -.217E+01 -.242E-03
   0.795E+01 -.494E+01 -.115E+00   -.830E+01 0.549E+01 0.117E+00   0.148E+00 -.550E+00 -.155E-02
   0.328E+01 0.360E+00 0.366E+00   -.328E+01 -.397E+00 -.363E+00   0.455E-01 -.152E-01 0.135E-02
   0.156E+00 0.755E+00 -.107E+00   -.708E-01 -.652E+00 0.107E+00   0.208E-01 -.219E-03 -.113E-02
   -.147E+00 -.327E+01 0.356E+00   0.237E+00 0.359E+01 -.355E+00   -.121E+00 -.393E+00 0.366E-03
   0.376E+00 0.632E+00 -.177E+00   -.526E+00 -.683E+00 0.176E+00   0.620E-01 0.852E-01 0.336E-02
   0.425E+01 0.549E+01 -.737E+00   -.431E+01 -.573E+01 0.740E+00   0.107E+00 0.120E+00 -.418E-02
   -.589E+01 0.107E+02 -.169E+01   0.546E+01 -.109E+02 0.170E+01   0.241E+00 0.115E+00 -.193E-01
   -.247E+00 0.567E+01 -.824E+00   0.848E-02 -.571E+01 0.820E+00   0.141E+00 -.794E-01 0.189E-02
   0.696E+00 0.595E+01 -.709E+00   -.773E+00 -.617E+01 0.709E+00   -.334E-02 0.304E+00 0.233E-03
   -.428E+01 0.845E+01 -.895E+00   0.473E+01 -.878E+01 0.888E+00   -.105E+00 0.253E+00 0.705E-02
   -.123E+02 0.394E+02 -.180E+01   0.134E+02 -.425E+02 0.178E+01   -.147E+01 0.353E+01 0.118E-01
   -.770E+01 0.400E+01 -.642E+00   0.767E+01 -.415E+01 0.651E+00   -.147E+00 0.742E-01 -.924E-02
   -.133E+02 -.825E+01 -.441E+00   0.138E+02 0.873E+01 0.438E+00   -.414E+00 -.317E+00 0.458E-02
   -.234E+02 -.163E+02 -.806E+00   0.268E+02 0.166E+02 0.817E+00   -.346E+01 -.393E+00 -.115E-01
   -.238E+02 -.266E+02 -.140E+01   0.258E+02 0.292E+02 0.139E+01   -.198E+01 -.272E+01 0.657E-02
   -.937E+01 -.481E+01 0.201E+00   0.959E+01 0.508E+01 -.202E+00   -.280E+00 -.299E+00 0.354E-02
   -.744E+00 -.626E+01 0.421E+00   0.123E+01 0.627E+01 -.419E+00   -.438E+00 -.549E-01 -.211E-03
   0.217E+01 -.113E+02 0.421E+00   -.198E+01 0.118E+02 -.423E+00   -.332E-01 -.495E+00 0.617E-02
   -.982E+01 -.123E+02 0.209E+00   0.104E+02 0.128E+02 -.210E+00   -.564E+00 -.466E+00 0.356E-02
   -.411E+01 -.476E+01 0.516E+00   0.409E+01 0.495E+01 -.517E+00   -.181E-01 -.140E+00 0.506E-02
   -.350E+02 -.446E+02 0.254E+01   0.540E+02 0.444E+02 -.262E+01   -.188E+02 0.518E+00 0.839E-01
   -.291E+02 -.540E+01 0.293E+01   0.387E+02 0.219E+02 -.311E+01   -.929E+01 -.163E+02 0.176E+00
   -.126E+02 0.162E+02 0.146E+01   0.554E+01 -.637E+01 -.157E+01   0.704E+01 -.956E+01 0.872E-01
   -.547E+02 0.897E+02 -.537E+00   0.690E+02 -.114E+03 0.566E+00   -.134E+02 0.231E+02 -.299E-01
   0.572E+02 0.194E+02 -.839E+00   -.669E+02 -.361E+02 0.850E+00   0.918E+01 0.165E+02 -.982E-02
   0.263E+02 0.156E+02 -.460E+01   -.469E+02 -.156E+02 0.481E+01   0.204E+02 -.387E+00 -.211E+00
   0.250E+02 -.121E+03 0.114E+02   -.274E+02 0.116E+03 -.112E+02   0.106E+01 0.505E+01 -.167E+00
   0.784E+02 -.983E+02 -.377E+01   -.739E+02 0.966E+02 0.376E+01   -.391E+01 0.290E+01 0.484E-01
   0.835E+01 -.222E+02 0.745E-01   0.199E-12 0.171E-12 0.444E-14   -.797E+01 0.211E+02 -.778E-01

 POSITION                                       TOTAL-FORCE (eV/Angst)
      2.95782     12.28210     10.06991         0.089206      0.021062     -0.004447
      0.69202      1.24386     10.06525         0.095131     -0.031917     -0.000890
      1.42101      0.01791     10.06511        -0.133691      0.013790     -0.000231
      3.55704      1.24822     10.06506        -0.076189      0.007318     -0.003467
      2.83261      2.47146     10.06318        -0.028609      0.030872     -0.000581
      0.70032      3.69982     10.06501         0.103974     -0.032424     -0.002025
      1.40377      2.47230     10.06522        -0.039434      0.021347     -0.005371
      3.54716      3.68752     10.05829         0.284060     -0.103681      0.003892
      2.84898      4.92590     10.05781         0.405254      0.250467      0.002408
      0.76553      6.16096     10.06411         0.162567     -0.149572      0.000565
      1.44140      4.92054     10.06219        -0.199806      0.003816      0.002973
      2.97632      7.32251     10.06215         0.062824     -0.420305     -0.007952
      0.82641      8.60568     10.06522         0.108151      0.065375      0.001588
      1.54041      7.36948     10.06392         0.040280      0.162379      0.000608
      3.74412      8.57422     10.06624         0.185225      0.192440      0.001781
      2.98526      9.80447     10.06793         0.051213     -0.066606     -0.000529
      0.81865     11.05780     10.06656         0.061580      0.060691      0.000336
      1.54752      9.82542     10.06652        -0.114609     -0.084564     -0.001788
      3.68506     11.04921     10.07000        -0.006202      0.057499     -0.002859
      7.12801      0.08504     10.06732         0.061700      0.012629     -0.000797
      4.98123      1.29052     10.06443         0.070643     -0.175738      0.000456
      5.70767      0.05297     10.06680        -0.066070      0.107647     -0.002348
      7.82042      1.35171     10.06719        -0.080007     -0.068991      0.000910
      7.09653      2.59185     10.06422         0.208363     -0.024372      0.005307
      5.65746      2.56898     10.06094        -0.393328      0.529437     -0.000398
      7.82030      3.85500     10.06814        -0.021833      0.135323      0.001049
      7.26730      9.83295     10.07292         0.323145     -0.145022     -0.006205
      5.11377     11.05660     10.07071         0.034550      0.001390     -0.003340
      5.80024      9.78128     10.07084        -0.373877     -0.186814     -0.001930
      7.94468     11.11156     10.07198        -0.191549     -0.025331      0.000430
     11.41353      0.13314     10.06998         0.047864     -0.050024      0.004085
      9.25584      1.37565     10.07004         0.107236      0.100625     -0.000455
      9.97768      0.13932     10.06902        -0.038532     -0.101194      0.001443
     12.12545      1.36297     10.07259        -0.088795      0.034885      0.001708
     11.40829      2.59841     10.07455         0.049217     -0.109666     -0.001489
      9.26805      3.87173     10.07576        -0.176637     -0.126826     -0.007549
      9.97221      2.62150     10.07384        -0.088511     -0.128862     -0.001517
     12.13820      3.82072     10.07536        -0.083444      0.107749     -0.000646
     11.45073      5.06471     10.07693         0.348045     -0.069713      0.000743
     10.01710      5.11178     10.07925        -0.424391      0.697670     -0.003011
     12.21415      6.27439     10.07578        -0.189047     -0.064197     -0.001105
     11.52548      7.51096     10.07597         0.075717      0.134836      0.001653
      9.38767      8.73206     10.07589        -0.215070     -0.154253     -0.001121
     10.11639      7.50287     10.07878        -0.067604     -0.312384      0.000909
     12.26171      8.72742     10.07369        -0.075772     -0.041015      0.001855
     11.54183      9.94824     10.07281         0.028834     -0.040597      0.002562
      9.37729     11.16650     10.07178         0.155354      0.009210      0.004374
     10.10867      9.94851     10.07305        -0.005167     -0.007013      0.002399
     12.25020     11.17715     10.07300        -0.050559      0.042412      0.004199
      3.61428      6.08973     10.05597        -1.378508      0.388033      0.009155
      4.92752      3.74469     10.05529        -0.421526     -1.170551      0.013357
      7.14073      5.00845     10.06333         0.583375     -0.560549     -0.013852
      5.12286      8.57813     10.06878        -0.240470      0.765018     -0.003126
      8.00266      8.66318     10.07448         0.288117      1.231329      0.000434
      9.38381      6.33481     10.08305         1.625036     -0.497330     -0.018399
      5.44691      5.61013     10.04765        -0.826698     -0.736122     -0.003802
      7.47585      6.77205     10.07455         0.439274      0.500385      0.030054
    total drift:                                0.005310     -0.000469      0.000328

  FREE ENERGIE OF THE ION-ELECTRON SYSTEM (eV)
  free  energy   TOTEN  =      -599.87847917 eV

  energy  without entropy=     -599.87790642  energy(sigma->0) =     -599.87819279

 stress matrix after NEB project (eV)
    -36.38323      0.80778      0.01960
      0.80779    -42.42171      0.01074
      0.01382      0.00888     -0.41412
  FORCES: max atom, RMS     1.699534    0.495178
  FORCE total and by dimension    3.738508    1.625036
  Stress total and by dimension   55.900072   42.421708
 writing wavefunctions

 total charge

[...]

 magnetization (x)

# of ion       s       p       d       tot
    1        0.001   0.008   0.000   0.009
    2        0.000   0.002   0.000   0.003
    3       -0.000  -0.005   0.000  -0.006
    4       -0.000  -0.002   0.000  -0.002
    5       -0.000  -0.000   0.000  -0.000
    6        0.000   0.005   0.000   0.005
    7       -0.001  -0.009   0.000  -0.009
    8       -0.001  -0.015   0.000  -0.016
    9        0.000  -0.006   0.000  -0.005
   10       -0.001  -0.020   0.000  -0.021
   11        0.000   0.002   0.000   0.002
   12        0.000   0.005   0.000   0.005
   13        0.001   0.015   0.000   0.016
   14       -0.000  -0.002   0.000  -0.003
   15       -0.001  -0.015   0.000  -0.017
   16        0.000   0.009   0.000   0.009
   17        0.000   0.001   0.000   0.002
   18       -0.001  -0.011   0.000  -0.012
   19       -0.000   0.002   0.000   0.002
   20       -0.000  -0.002   0.000  -0.002
   21       -0.000  -0.003   0.000  -0.004
   22        0.001   0.012   0.000   0.013
   23        0.000   0.000   0.000   0.000
   24       -0.001  -0.008   0.000  -0.008
   25        0.001   0.010   0.000   0.011
   26       -0.001   0.013   0.000   0.012
   27       -0.000   0.015   0.000   0.015
   28       -0.001  -0.008   0.000  -0.009
   29        0.001   0.012   0.000   0.013
   30       -0.001  -0.003   0.000  -0.004
   31        0.000   0.005   0.000   0.005
   32        0.000   0.008   0.000   0.008
   33        0.000   0.005   0.000   0.005
   34       -0.000  -0.003   0.000  -0.003
   35       -0.000  -0.001   0.000  -0.001
   36       -0.001  -0.006   0.000  -0.007
   37       -0.000  -0.002   0.000  -0.003
   38        0.000   0.006   0.000   0.006
   39       -0.001  -0.007   0.000  -0.008
   40        0.001   0.009   0.000   0.009
   41       -0.000  -0.004   0.000  -0.004
   42       -0.001  -0.005   0.000  -0.006
   43       -0.002  -0.004   0.000  -0.006
   44        0.001   0.017   0.000   0.018
   45        0.000   0.009   0.000   0.010
   46       -0.000  -0.003   0.000  -0.003
   47        0.001   0.013   0.000   0.014
   48        0.000   0.001   0.000   0.001
   49       -0.000  -0.004   0.000  -0.004
   50       -0.006  -0.089   0.000  -0.095
   51       -0.006  -0.048   0.000  -0.054
   52       -0.001   0.007   0.000   0.006
   53       -0.010  -0.002   0.000  -0.013
   54        0.006   0.079   0.000   0.085
   55       -0.014  -0.074   0.000  -0.088
   56        0.010  -0.014   1.557   1.553
   57       -0.087  -0.056  -3.105  -3.248
tot         -0.112  -0.162  -1.548  -1.822