 vasp.5.4.4.18Apr17-6-g9f103f2a35 (build Feb 25 2019 10:51:38) complex

 executed on             LinuxIFC date 2021.03.06  09:28:20

 INCAR:
 POTCAR:    PAW_PBE C 08Apr2002
 POTCAR:    PAW_PBE N 08Apr2002
 POTCAR:    PAW_PBE Fe 06Sep2000
 POTCAR:    PAW_PBE Cu 22Jun2005

 POTCAR:    PAW_PBE C 08Apr2002
   VRHFIN =C: s2p2

   TITEL  = PAW_PBE C 08Apr2002
   POMASS =   12.011; ZVAL   =    4.000    mass and valenz
   ENMAX  =  400.000; ENMIN  =  300.000 eV

 POTCAR:    PAW_PBE N 08Apr2002
   VRHFIN =N: s2p3

   TITEL  = PAW_PBE N 08Apr2002
   POMASS =   14.001; ZVAL   =    5.000    mass and valenz
   ENMAX  =  400.000; ENMIN  =  300.000 eV

 POTCAR:    PAW_PBE Fe 06Sep2000
   VRHFIN =Fe:  d7 s1

   TITEL  = PAW_PBE Fe 06Sep2000
   POMASS =   55.847; ZVAL   =    8.000    mass and valenz
   ENMAX  =  267.882; ENMIN  =  200.911 eV

 POTCAR:    PAW_PBE Cu 22Jun2005
   VRHFIN =Cu: d10 p1

   TITEL  = PAW_PBE Cu 22Jun2005
   POMASS =   63.546; ZVAL   =   11.000    mass and valenz
   ENMAX  =  295.446; ENMIN  =  221.585 eV

  PAW_PBE C 08Apr2002                   :
  PAW_PBE N 08Apr2002                   :
  PAW_PBE Fe 06Sep2000                  :
  PAW_PBE Cu 22Jun2005                  :

 POSCAR:  C  N Fe Cu
  positions in cartesian coordinates
 exchange correlation table for  LEXCH =        8
   RHO(1)=    0.500       N(1)  =     2000
   RHO(2)=  100.500       N(2)  =     4000

 VTST: version 3.2, (02/03/18)

 CHAIN: initializing optimizer

 OPT: Using VASP Conjugate-Gradient optimizer
 CHAIN: Read ICHAIN            0

 POSCAR:  C  N Fe Cu
  positions in cartesian coordinates

 ion  position               nearest neighbor table
   1  0.223  0.003  0.500-  19 1.43   4 1.43   3 1.43
   2  0.058  0.102  0.499-   3 1.42  38 1.44   7 1.44
   3  0.112  0.002  0.500-   2 1.42  17 1.43   1 1.43
   4  0.280  0.104  0.500-  21 1.43   1 1.43   5 1.44
   5  0.227  0.206  0.500-   7 1.44   4 1.44   8 1.45
   6  0.059  0.302  0.498-   7 1.43  11 1.43  42 1.44
   7  0.115  0.203  0.499-   6 1.43   2 1.44   5 1.44
   8  0.284  0.309  0.501-  25 1.45   5 1.45   9 1.46
   9  0.226  0.409  0.501-  55 1.39  11 1.44   8 1.46
  10  0.055  0.501  0.498-  14 1.42  46 1.42  11 1.43
  11  0.114  0.404  0.499-   6 1.43  10 1.43   9 1.44
  12  0.217  0.604  0.500-  55 1.39  14 1.40  15 1.42
  13  0.053  0.703  0.499-  18 1.41  50 1.42  14 1.43
  14  0.108  0.603  0.499-  12 1.40  10 1.42  13 1.43
  15  0.273  0.705  0.501-  58 1.38  16 1.41  12 1.42
  16  0.219  0.803  0.500-  15 1.41  19 1.42  18 1.42
  17  0.054  0.902  0.500-  18 1.42   3 1.43  54 1.43
  18  0.109  0.803  0.500-  13 1.41  17 1.42  16 1.42
  19  0.277  0.903  0.500-  16 1.42  32 1.43   1 1.43
  20  0.555  0.995  0.498-  22 1.43  23 1.43  34 1.44
  21  0.390  0.101  0.499-   4 1.43  26 1.43  22 1.45
  22  0.444  0.998  0.499-  20 1.43  32 1.43  21 1.45
  23  0.612  0.096  0.497-  24 1.43  20 1.43  36 1.43
  24  0.558  0.196  0.497-  27 1.42  26 1.43  23 1.43
  25  0.396  0.305  0.500-  56 1.39   8 1.45  26 1.45
  26  0.447  0.201  0.498-  24 1.43  21 1.43  25 1.45
  27  0.615  0.296  0.495-  28 1.41  24 1.42  40 1.42
  28  0.562  0.395  0.496-  56 1.38  27 1.41  29 1.42
  29  0.617  0.495  0.496-  57 1.39  44 1.40  28 1.42
  30  0.608  0.690  0.498-  57 1.39  48 1.44  31 1.46
  31  0.551  0.791  0.500-  33 1.45  34 1.45  30 1.46
  32  0.387  0.898  0.500-  19 1.43  22 1.43  33 1.45
  33  0.439  0.794  0.501-  58 1.39  31 1.45  32 1.45
  34  0.608  0.893  0.498-  52 1.44  20 1.44  31 1.45
  35  0.888  0.999  0.498-  54 1.42  38 1.43  37 1.44
  36  0.723  0.097  0.497-  37 1.42  41 1.43  23 1.43
  37  0.777  0.997  0.497-  36 1.42  35 1.44  52 1.44
  38  0.946  0.100  0.498-  39 1.42  35 1.43   2 1.44
  39  0.891  0.199  0.497-  38 1.42  42 1.43  41 1.43
  40  0.726  0.296  0.495-  45 1.42  41 1.42  27 1.42
  41  0.780  0.197  0.496-  40 1.42  36 1.43  39 1.43
  42  0.948  0.300  0.497-  43 1.43  39 1.43   6 1.44
  43  0.891  0.398  0.496-  46 1.42  45 1.42  42 1.43
  44  0.726  0.496  0.495-  29 1.40  49 1.42  45 1.43
  45  0.781  0.396  0.495-  40 1.42  43 1.42  44 1.43
  46  0.945  0.500  0.497-  43 1.42  10 1.42  47 1.44
  47  0.889  0.599  0.497-  49 1.42  50 1.42  46 1.44
  48  0.720  0.695  0.497-  53 1.43  49 1.43  30 1.44
  49  0.779  0.598  0.496-  44 1.42  47 1.42  48 1.43
  50  0.943  0.701  0.498-  47 1.42  13 1.42  51 1.43
  51  0.886  0.799  0.498-  50 1.43  54 1.43  53 1.44
  52  0.719  0.896  0.498-  53 1.43  37 1.44  34 1.44
  53  0.775  0.797  0.498-  52 1.43  48 1.43  51 1.44
  54  0.943  0.900  0.499-  35 1.42  51 1.43  17 1.43
  55  0.276  0.511  0.502-  12 1.39   9 1.39  59 1.89
  56  0.456  0.401  0.500-  28 1.38  25 1.39  59 1.91
  57  0.559  0.589  0.499-  29 1.39  30 1.39  59 1.89
  58  0.380  0.699  0.503-  15 1.38  33 1.39  59 1.91
  59  0.419  0.550  0.509-  57 1.89  55 1.89  56 1.91  58 1.91  60 2.33
  60  0.441  0.552  0.626-  59 2.33

  LATTYP: Found a triclinic cell.
 ALAT       =    17.9945513015
 B/A-ratio  =     0.6845030876
 C/A-ratio  =     1.8960694684
 COS(alpha) =     0.0024964886
 COS(beta)  =     0.5831760874
 COS(gamma) =     0.6967407793

  Lattice vectors:

 A1 = (  13.0954090170, -12.3227566892,  -0.6810336248)
 A2 = (   0.1932369684, -12.3135126081,  -0.2378753784)
 A3 = (  26.9517173618,   0.7416625007, -20.9082644789)

Analysis of symmetry for initial positions (statically):
 Subroutine PRICEL returns:
 Original cell was already a primitive cell.

 Routine SETGRP: Setting up the symmetry group for a
 triclinic supercell.

 Subroutine GETGRP returns: Found  1 space group operations
 (whereof  1 operations were pure point group operations)
 out of a pool of  2 trial point group operations.

The static configuration has the point symmetry C_1 .

Analysis of symmetry for dynamics (positions and initial velocities):
 Subroutine PRICEL returns:
 Original cell was already a primitive cell.

[...]

The dynamic configuration has the point symmetry C_1 .

Analysis of structural, dynamic, and magnetic symmetry:
 Subroutine PRICEL returns:
 Original cell was already a primitive cell.

 Routine SETGRP: Setting up the symmetry group for a
 triclinic supercell.

 Subroutine GETGRP returns: Found  1 space group operations
 (whereof  1 operations were pure point group operations)
 out of a pool of  2 trial point group operations.

The magnetic configuration has the point symmetry C_1 .

 Subroutine INISYM returns: Found  1 space group operations
 (whereof  1 operations are pure point group operations),
 and found     1 'primitive' translations

 KPOINTS: KPOINTS created by Atomic Simulation Env

Automatic generation of k-mesh.
Space group operators:
 irot       det(A)        alpha          n_x          n_y          n_z        tau_x        tau_y        tau_z
    1     1.000000     0.000000     1.000000     0.000000     0.000000     0.000000     0.000000     0.000000

 Subroutine IBZKPT returns following result:

 Found      2 irreducible k-points:

 Following reciprocal coordinates:
            Coordinates               Weight
  0.250000  0.250000 -0.000000      2.000000
 -0.250000  0.250000 -0.000000      2.000000

 Following cartesian coordinates:
            Coordinates               Weight
  0.019456  0.020572  0.001896      2.000000
 -0.019374  0.020006 -0.000351      2.000000

 Subroutine IBZKPT_HF returns following result:

 Found      4 k-points in 1st BZ
 the following      4 k-points will be used (e.g. in the exchange kernel)
 Following reciprocal coordinates:   # in IRBZ
  0.250000  0.250000 -0.000000    0.25000000   1 t-inv F
 -0.250000  0.250000 -0.000000    0.25000000   2 t-inv F
 -0.250000 -0.250000  0.000000    0.25000000   1 t-inv T
  0.250000 -0.250000  0.000000    0.25000000   2 t-inv T

 SYSTEM =  unknown system
 POSCAR =   C  N Fe Cu

 Startparameter for this run:
   NWRITE =      2    write-flag & timer
   PREC   = accura    normal or accurate (medium, high low for compatibility)
   ISTART =      1    job   : 0-new  1-cont  2-samecut
   ICHARG =      0    charge: 1-file 2-atom 10-const
   ISPIN  =      2    spin polarized calculation?
   LNONCOLLINEAR =      F non collinear calculations
   LSORBIT =      F    spin-orbit coupling
   INIWAV =      1    electr: 0-lowe 1-rand  2-diag
   LASPH  =      T    aspherical Exc in radial PAW
   METAGGA=      F    non-selfconsistent MetaGGA calc.

 Electronic Relaxation 1
   ENCUT  =  500.0 eV  36.75 Ry    6.06 a.u.  23.54 22.46 36.59*2*pi/ulx,y,z
   ENINI  =  500.0     initial cutoff
   ENAUG  =  644.9 eV  augmentation charge cutoff
   NELM   =    250;   NELMIN=  2; NELMDL=  0     # of ELM steps
   EDIFF  = 0.1E-03   stopping-criterion for ELM
   LREAL  =      F    real-space projection
   NLSPLINE    = F    spline interpolate recip. space projectors
   LCOMPAT=      F    compatible to vasp.4.4
   GGA_COMPAT  = T    GGA compatible to vasp.4.4-vasp.4.6
   LMAXPAW     = -100 max onsite density
   LMAXMIX     =    2 max onsite mixed and CHGCAR
   VOSKOWN=      0    Vosko Wilk Nusair interpolation
   ROPT   =    0.00000   0.00000   0.00000   0.00000
 Ionic relaxation
   EDIFFG = -.3E-01   stopping-criterion for IOM
   NSW    =      0    number of steps for IOM
   NBLOCK =      1;   KBLOCK =      1    inner block; outer block
   IBRION =     -1    ionic relax: 0-MD 1-quasi-New 2-CG
   NFREE  =      1    steps in history (QN), initial steepest desc. (CG)
   ISIF   =      2    stress and relaxation
   IWAVPR =     10    prediction:  0-non 1-charg 2-wave 3-comb
   ISYM   =      3    0-nonsym 1-usesym 2-fastsym
   LCORR  =      T    Harris-Foulkes like correction to forces

   POTIM  = 0.5000    time-step for ionic-motion
   TEIN   =    0.0    initial temperature
   TEBEG  =    0.0;   TEEND  =   0.0 temperature during run
   SMASS  =  -3.00    Nose mass-parameter (am)
   estimated Nose-frequenzy (Omega)   =  0.10E-29 period in steps =****** mass=  -0.381E-26a.u.
   SCALEE = 1.0000    scale energy and forces
   NPACO  =    256;   APACO  = 16.0  distance and # of slots for P.C.
   PSTRESS=    0.0 pullay stress

  Mass of Ions in am
   POMASS =  12.01 14.00 55.85 63.55
  Ionic Valenz
   ZVAL   =   4.00  5.00  8.00 11.00
  Atomic Wigner-Seitz radii
  virtual crystal weights
   VCA    =   1.00  1.00  1.00  1.00
   NELECT =     255.0000    total number of electrons
   NUPDOWN=      -1.0000    fix difference up-down

 DOS related values:
   EMIN   =  10.00;   EMAX   =-10.00  energy-range for DOS
   EFERMI =   0.00
   ISMEAR =     0;   SIGMA  =   0.10  broadening in eV -4-tet -1-fermi 0-gaus

 Electronic relaxation 2 (details)
   IALGO  =     53    algorithm
   LDIAG  =      T    sub-space diagonalisation (order eigenvalues)
   LSUBROT=      F    optimize rotation matrix (better conditioning)
   TURBO    =      0    0=normal 1=particle mesh
   IRESTART =      0    0=no restart 2=restart with 2 vectors
   NREBOOT  =      0    no. of reboots
   NMIN     =      0    reboot dimension
   EREF     =   0.00    reference energy to select bands
   IMIX   =      4    mixing-type and parameters
     AMIX     =   0.40;   BMIX     =  1.00
     AMIX_MAG =   1.60;   BMIX_MAG =  1.00
     AMIN     =   0.10
     WC   =   100.;   INIMIX=   1;  MIXPRE=   1;  MAXMIX= -45

 Intra band minimization:
[...]
   48        0.862   1.760   0.000   2.622
   49        0.869   1.777   0.000   2.646
   50        0.870   1.778   0.000   2.648
   51        0.865   1.765   0.000   2.629
   52        0.861   1.759   0.000   2.620
   53        0.864   1.762   0.000   2.626
   54        0.866   1.770   0.000   2.636
   55        1.231   2.659   0.000   3.890
   56        1.234   2.654   0.000   3.887
   57        1.231   2.659   0.000   3.890
   58        1.234   2.653   0.000   3.887
   59        0.478   0.689   6.346   7.513
   60        0.416   0.039   9.450   9.904
tot         52.463 106.485  15.796 174.744

 magnetization (x)

[...]

  FORCE on cell =-STRESS in cart. coord.  units (eV):
  Direction    XX          YY          ZZ          XY          YZ          ZX
  Alpha Z   108.20478   108.20478   108.20478
  Ewald   49475.26438 49573.84689-57834.53169    91.46045  2020.11465 -3686.68311
  Hartree 49209.32347 49275.62782-47833.58787    50.65257  1828.73267 -3339.04967
  E(xc)    -753.47186  -753.17366  -767.30577     0.28706     0.24553    -0.45172
  Local  ************************102435.24073  -131.51269 -3839.90980  7009.32784
  n-local   -85.05564   -84.56194   -83.01241     0.85696    -0.00910    -0.09178
  augment    99.31340    98.17441    97.66618    -1.58484     0.12321    -0.18369
  Kinetic  3748.26839  3738.60966  4270.17957   -11.75495    -9.50542    17.56408
  Fock     -423.47055  -422.93491  -392.79488     0.65875    -0.61403     1.09661
  Total     -46.30932   -46.10485     0.05865    -0.93668    -0.82228     1.52855
  in kB     -23.35490   -23.25178     0.02958    -0.47239    -0.41470     0.77088

 VOLUME and BASIS-vectors are now :
  energy-cutoff  :      500.00
  volume of cell :     3176.88
      direct lattice vectors                 reciprocal lattice vectors
    12.902172049 -0.009244081 -0.443158246     0.077661479  0.001131943  0.004493427
    -0.193236968 12.313512608  0.237875378     0.000164297  0.081154470  0.003090515
    -1.147373265 -0.760150663 20.021947986     0.001716978 -0.000939120  0.050007928

  length of vectors
    12.909783819 12.317325926 20.069197682     0.077799598  0.081213461  0.050046207

 FORCES acting on ions:
    Electron-Ion                     Ewald-Force                    Non-Local-Force
   0.654E+01 -.859E+01 0.316E+01   -.677E+01 0.893E+01 -.317E+01   0.202E+00 -.268E+00 -.645E-03
   0.546E+01 -.203E+01 0.380E+01   -.539E+01 0.203E+01 -.382E+01   -.418E-01 -.889E-03 0.161E-01
   0.426E+01 -.473E+01 0.148E+01   -.432E+01 0.476E+01 -.147E+01   0.499E-01 -.265E-01 -.328E-01
   0.783E+01 0.914E+00 0.505E+01   -.797E+01 -.870E+00 -.503E+01   0.117E+00 -.924E-01 -.267E-01
   0.816E+01 0.114E+02 0.658E+01   -.821E+01 -.113E+02 -.659E+01   -.661E-02 -.164E+00 0.747E-02
   0.950E+01 0.117E+02 0.113E+02   -.945E+01 -.119E+02 -.114E+02   -.207E-01 0.310E+00 0.344E-01
   0.457E+01 0.110E+02 0.616E+01   -.444E+01 -.111E+02 -.615E+01   -.602E-01 0.852E-01 -.829E-02
   0.210E+02 0.318E+02 0.150E+02   -.211E+02 -.319E+02 -.150E+02   -.487E-02 -.191E-01 0.259E-01
   0.370E+02 0.597E+02 0.227E+02   -.382E+02 -.627E+02 -.226E+02   0.132E+01 0.322E+01 -.367E-01
   0.212E+02 0.111E+02 0.143E+02   -.216E+02 -.113E+02 -.142E+02   0.348E+00 0.179E+00 -.272E-01
   0.206E+02 0.202E+02 0.163E+02   -.208E+02 -.205E+02 -.163E+02   0.157E+00 0.240E+00 0.407E-01
   0.642E+02 -.263E+02 0.298E+02   -.660E+02 0.288E+02 -.298E+02   0.177E+01 -.261E+01 -.124E-01
   0.181E+02 -.789E+01 0.972E+01   -.183E+02 0.827E+01 -.971E+01   0.140E+00 -.309E+00 -.830E-02
   0.374E+02 -.848E+01 0.155E+02   -.379E+02 0.877E+01 -.155E+02   0.497E+00 -.224E+00 -.212E-01
   0.577E+02 -.451E+02 0.289E+02   -.608E+02 0.453E+02 -.289E+02   0.325E+01 -.181E+00 0.278E-01
   0.250E+02 -.308E+02 0.125E+02   -.256E+02 0.311E+02 -.125E+02   0.484E+00 -.331E+00 -.906E-02
   0.949E+01 -.115E+02 0.327E+01   -.958E+01 0.117E+02 -.329E+01   0.518E-01 -.121E+00 0.107E-01
   0.149E+02 -.171E+02 0.729E+01   -.153E+02 0.172E+02 -.727E+01   0.355E+00 -.756E-01 -.243E-01
   0.760E+01 -.278E+02 0.741E+01   -.763E+01 0.282E+02 -.738E+01   0.794E-01 -.443E+00 -.411E-01
   -.693E+01 -.103E+01 0.117E+02   0.708E+01 0.983E+00 -.117E+02   -.114E+00 0.932E-01 -.175E-01
   0.118E+01 0.109E+02 0.106E+02   -.140E+01 -.110E+02 -.106E+02   0.220E+00 0.142E+00 0.134E-02
   0.177E+00 -.109E+02 0.113E+02   0.368E-01 0.111E+02 -.113E+02   -.222E+00 -.147E+00 0.522E-01
   -.575E+01 0.858E+01 0.149E+02   0.598E+01 -.891E+01 -.149E+02   -.201E+00 0.267E+00 0.332E-01
   -.618E+01 0.277E+02 0.211E+02   0.622E+01 -.281E+02 -.211E+02   -.854E-01 0.448E+00 -.209E-01
   0.319E+02 0.641E+02 0.254E+02   -.339E+02 -.667E+02 -.252E+02   0.218E+01 0.279E+01 -.983E-01
   0.730E+01 0.252E+02 0.191E+02   -.737E+01 -.256E+02 -.191E+02   0.122E+00 0.264E+00 0.414E-01
   -.230E+02 0.304E+02 0.346E+02   0.235E+02 -.307E+02 -.346E+02   -.480E+00 0.326E+00 0.683E-01
   -.534E+02 0.438E+02 0.548E+02   0.566E+02 -.440E+02 -.551E+02   -.323E+01 0.172E+00 0.364E+00
   -.606E+02 0.245E+02 0.572E+02   0.624E+02 -.270E+02 -.575E+02   -.176E+01 0.261E+01 0.344E+00
   -.344E+02 -.618E+02 0.317E+02   0.356E+02 0.648E+02 -.315E+02   -.133E+01 -.322E+01 -.799E-01
   -.187E+02 -.330E+02 0.197E+02   0.187E+02 0.331E+02 -.197E+02   -.524E-03 0.991E-02 0.360E-01
   -.544E+01 -.255E+02 0.135E+02   0.552E+01 0.259E+02 -.135E+02   -.116E+00 -.267E+00 0.291E-01
   -.286E+02 -.650E+02 0.230E+02   0.306E+02 0.676E+02 -.230E+02   -.218E+01 -.279E+01 0.316E-01
   -.697E+01 -.121E+02 0.128E+02   0.702E+01 0.119E+02 -.129E+02   0.166E-02 0.168E+00 0.377E-01
   0.230E+01 -.440E+01 0.635E+01   -.231E+01 0.448E+01 -.638E+01   0.259E-01 -.376E-01 0.162E-01
   -.382E+01 0.459E+01 0.137E+02   0.389E+01 -.461E+01 -.137E+02   -.547E-01 0.267E-01 0.538E-02
   -.526E+01 0.181E+01 0.965E+01   0.521E+01 -.181E+01 -.965E+01   0.461E-01 0.478E-02 0.278E-02
   -.227E+01 0.421E+01 0.676E+01   0.229E+01 -.429E+01 -.676E+01   -.263E-01 0.260E-01 -.530E-03
   -.196E+01 0.518E+01 0.128E+02   0.194E+01 -.524E+01 -.128E+02   -.341E-01 0.620E-01 0.218E-01
   -.140E+02 0.168E+02 0.283E+02   0.144E+02 -.168E+02 -.283E+02   -.348E+00 0.812E-01 0.410E-01
   -.914E+01 0.114E+02 0.180E+02   0.924E+01 -.115E+02 -.180E+02   -.530E-01 0.120E+00 0.111E-01
   -.255E+01 0.919E+01 0.139E+02   0.261E+01 -.929E+01 -.139E+02   -.577E-01 0.998E-01 0.622E-02
   -.482E+01 0.878E+01 0.189E+02   0.489E+01 -.880E+01 -.189E+02   -.458E-01 0.512E-01 0.900E-02
   -.364E+02 0.746E+01 0.361E+02   0.369E+02 -.776E+01 -.361E+02   -.491E+00 0.227E+00 0.416E-01
   -.176E+02 0.738E+01 0.283E+02   0.177E+02 -.776E+01 -.284E+02   -.144E+00 0.306E+00 0.202E-01
   0.485E+01 -.240E+00 0.153E+02   -.496E+01 0.227E+00 -.153E+02   0.161E+00 -.342E-01 0.110E-01
   -.501E+01 -.474E+00 0.152E+02   0.514E+01 0.487E+00 -.152E+02   -.158E+00 0.376E-01 0.135E-01
   -.200E+02 -.215E+02 0.234E+02   0.203E+02 0.218E+02 -.234E+02   -.148E+00 -.242E+00 0.348E-01
   -.209E+02 -.121E+02 0.233E+02   0.213E+02 0.123E+02 -.233E+02   -.351E+00 -.176E+00 -.779E-02
   0.483E+01 -.932E+01 0.909E+01   -.490E+01 0.934E+01 -.909E+01   0.426E-01 -.464E-01 -.208E-01
   0.255E+01 -.975E+01 0.822E+01   -.260E+01 0.985E+01 -.824E+01   0.574E-01 -.958E-01 0.168E-01
   -.422E+01 -.116E+02 0.109E+02   0.410E+01 0.117E+02 -.109E+02   0.645E-01 -.881E-01 -.602E-02
   -.933E+01 -.125E+02 0.129E+02   0.931E+01 0.128E+02 -.129E+02   0.324E-01 -.312E+00 0.506E-02
   0.211E+01 -.544E+01 0.467E+01   -.209E+01 0.550E+01 -.466E+01   0.331E-01 -.668E-01 -.757E-02
   0.387E+02 0.437E+02 0.532E+02   -.191E+02 -.429E+02 -.534E+02   -.189E+02 -.952E+00 0.302E+00
   0.263E+02 0.512E+02 0.606E+02   -.360E+02 -.336E+02 -.591E+02   0.916E+01 -.171E+02 -.141E+01
   -.320E+02 -.475E+02 0.727E+02   0.124E+02 0.467E+02 -.716E+02   0.188E+02 0.967E+00 -.101E+01
   -.189E+02 -.537E+02 0.484E+02   0.287E+02 0.361E+02 -.484E+02   -.923E+01 0.171E+02 0.672E-01
   0.972E+01 -.326E+01 0.104E+03   -.969E+01 0.324E+01 -.103E+03   -.959E-01 0.476E-01 -.179E+01
   -.546E+02 0.273E+02 -.124E+04   0.539E+02 -.270E+02 0.123E+04   0.661E+00 -.235E+00 0.909E+01
   -.287E+00 0.230E+00 -.643E+01   -.568E-13 0.313E-12 -.227E-12   0.500E+00 -.171E+00 0.619E+01

 POSITION                                       TOTAL-FORCE (eV/Angst)
      2.29946     -0.34279      9.91790        -0.019697      0.054245     -0.009965
      0.15125      0.87583      9.99340         0.021203     -0.006677     -0.009488
      0.86663     -0.35374      9.96072        -0.014846     -0.004632     -0.022604
      3.01660      0.89634      9.91221        -0.016310     -0.059078     -0.010313
      2.31268      2.15472      9.96238        -0.071004     -0.002499     -0.010637
      0.13366      3.34041     10.02142         0.021247      0.065201      0.000082
      0.87334      2.11970      9.99467         0.060561     -0.057932     -0.007045
      3.03286      3.41810      9.97180        -0.048897     -0.058802     -0.001936
      2.26750      4.65674     10.02202         0.200382      0.421198      0.014113
      0.04620      5.79560     10.07144        -0.043329     -0.000897     -0.000386
      0.82595      4.59211     10.03311        -0.103544     -0.071326      0.008952
      2.11417      7.05646     10.06811         0.058596     -0.241593      0.014746
     -0.02395      8.27081     10.13402         0.018409      0.052538     -0.007656
      0.71055      7.04709     10.08974         0.093097      0.052807     -0.011606
      2.81037      8.29294     10.07446         0.296318      0.008780      0.025596
      2.09601      9.50997     10.10915        -0.029356     -0.028958     -0.007148
     -0.04946     10.72721     10.19250        -0.041328      0.006932     -0.012373
      0.67163      9.50287     10.14698        -0.015197     -0.049521     -0.007538
      2.82171     10.73173     10.10931         0.048391     -0.076293     -0.011159
      6.39526     11.87145      9.96600         0.024864      0.057596     -0.000006
      4.44447      0.85736      9.84456         0.008976      0.020332     -0.002350
      4.96757     11.91061     10.03104        -0.018556     -0.028020      0.002989
      7.30489      0.79736      9.70351         0.020949     -0.057140      0.002067
      6.58938      2.03621      9.74646        -0.054591      0.090188      0.013644
      4.48053      3.37712      9.90599         0.252962      0.382664      0.007596
      5.16278      2.09594      9.82702         0.059929     -0.116042      0.003689
      7.31369      3.25877      9.71482         0.026319      0.019527      0.019303
      6.60066      4.47522      9.78414        -0.281339     -0.012481      0.089310
      7.29630      5.71207      9.77351        -0.047370      0.230877      0.079614
      7.14553      8.11081      9.87530        -0.197734     -0.417302      0.026413
      6.38139      9.34913      9.94625         0.026943      0.045399      0.007169
      4.24918     10.67174     10.05093        -0.052889      0.121687      0.011488
      4.93381      9.38996     10.02128        -0.249871     -0.403211      0.016558
      7.09982     10.61281      9.92307         0.054829      0.019953      0.006129
     10.69658     11.91851      9.81679         0.018398      0.029001     -0.007464
      8.73728      0.80864      9.64621         0.007974      0.005734      0.003547
      9.25925     11.89260      9.85357        -0.009312      0.015610      0.001139
     11.61590      0.84146      9.57636        -0.020594     -0.044825     -0.004486
     10.88970      2.06465      9.59717        -0.051654      0.000081      0.005736
      8.73723      3.26601      9.65314         0.028261      0.065290      0.023776
      9.45928      2.04158      9.62683         0.037539     -0.005930      0.010316
     11.60035      3.30520      9.59799        -0.013119      0.012271     -0.001998
     10.85423      4.52055      9.62736         0.018405      0.037955      0.002321
      8.69840      5.72223      9.70553        -0.081432     -0.048415      0.016073
      9.43285      4.49871      9.65167        -0.029060     -0.064488      0.015899
     11.53016      5.76741      9.64803         0.050463     -0.056982     -0.000953
     10.78097      6.99265      9.69728        -0.047387      0.059661     -0.001286
      8.58424      8.17680      9.79735         0.120074      0.064794      0.013420
      9.36319      6.97366      9.72974         0.034545     -0.001302      0.011672
     11.45709      8.23943      9.72136        -0.024311     -0.030764     -0.015842
     10.71155      9.45451      9.77050         0.008673     -0.003011     -0.005955
      8.53754     10.64868      9.86182        -0.049495      0.053658      0.011271
      9.27622      9.42841      9.80918         0.002594     -0.066822     -0.002784
     11.42247     10.69522      9.78152         0.044654     -0.005478     -0.007830
      2.88575      5.90200     10.05256        -0.935717     -0.260811      0.092387
      5.22606      4.54902      9.91308         0.311956     -0.962028     -0.010631
      6.52942      6.86432      9.88555         0.929936      0.251952      0.031767
      4.19078      8.21658     10.06218        -0.298232      0.976931      0.062783
      4.71699      6.37882     10.13839        -0.059069      0.023826     -0.769626
      4.87111      6.31725     12.46497         0.017790     -0.003428      0.309497
    total drift:                                0.243481      0.048419      0.084028

  FREE ENERGIE OF THE ION-ELECTRON SYSTEM (eV)
  free  energy   TOTEN  =      -625.16279610 eV

  energy  without entropy=     -625.16279610  energy(sigma->0) =     -625.16279610

 stress matrix after NEB project (eV)
    -46.30932     -0.93670      1.52855
     -0.93668    -46.10485     -0.82186
      1.52896     -0.82228      0.05865
  FORCES: max atom, RMS     1.023366    0.316999
  FORCE total and by dimension    2.455461    0.976931
  Stress total and by dimension   65.406381   46.309322
 writing wavefunctions
 vacuum level on the upper side and lower side of the slab         1.409         1.614

 total charge

[...]

 magnetization (x)

# of ion       s       p       d       tot
    1        0.000   0.001   0.000   0.001
    2        0.000  -0.000   0.000  -0.000
    3       -0.000  -0.002   0.000  -0.002
    4       -0.000  -0.001   0.000  -0.001
    5        0.000   0.001   0.000   0.001
    6       -0.000  -0.001   0.000  -0.001
    7       -0.000  -0.001   0.000  -0.001
    8       -0.000  -0.003   0.000  -0.003
    9       -0.000  -0.004   0.000  -0.004
   10       -0.000  -0.002   0.000  -0.002
   11       -0.000   0.001   0.000   0.001
   12        0.000   0.004   0.000   0.004
   13        0.000   0.001   0.000   0.001
   14       -0.000  -0.002   0.000  -0.002
   15       -0.000  -0.000   0.000  -0.000
   16       -0.000  -0.001   0.000  -0.001
   17        0.000   0.000   0.000   0.000
   18       -0.000  -0.001   0.000  -0.001
   19       -0.000  -0.002   0.000  -0.002
   20       -0.000  -0.001   0.000  -0.001
   21       -0.000  -0.001   0.000  -0.001
   22       -0.000  -0.001   0.000  -0.001
   23        0.000   0.001   0.000   0.001
   24       -0.000  -0.002   0.000  -0.002
   25       -0.000  -0.005   0.000  -0.006
   26        0.000   0.001   0.000   0.001
   27       -0.000  -0.001   0.000  -0.001
   28       -0.000   0.000   0.000  -0.000
   29        0.000   0.004   0.000   0.004
   30       -0.000  -0.004   0.000  -0.004
   31       -0.000  -0.003   0.000  -0.003
   32        0.000   0.001   0.000   0.001
   33       -0.000  -0.005   0.000  -0.006
   34        0.000   0.001   0.000   0.001
   35        0.000   0.000   0.000   0.000
   36       -0.000  -0.002   0.000  -0.002
   37        0.000  -0.000   0.000  -0.000
   38        0.000   0.000   0.000   0.000
   39       -0.000  -0.001   0.000  -0.001
   40       -0.000  -0.001   0.000  -0.001
   41        0.000   0.000   0.000   0.000
   42       -0.000  -0.000   0.000  -0.000
   43       -0.000  -0.002   0.000  -0.002
   44       -0.000  -0.002   0.000  -0.003
   45        0.000   0.001   0.000   0.001
   46        0.000   0.000   0.000   0.000
   47        0.000   0.000   0.000   0.000
   48       -0.000   0.001   0.000   0.001
   49       -0.000  -0.002   0.000  -0.002
   50       -0.000  -0.002   0.000  -0.002
   51       -0.000  -0.000   0.000  -0.000
   52       -0.000  -0.001   0.000  -0.001
   53       -0.000  -0.001   0.000  -0.001
   54       -0.000  -0.001   0.000  -0.001
   55       -0.005  -0.031   0.000  -0.036
   56       -0.005  -0.023   0.000  -0.028
   57       -0.005  -0.030   0.000  -0.035
   58       -0.005  -0.024   0.000  -0.029
   59        0.023   0.009   1.615   1.647
   60       -0.216   0.007   0.059  -0.150
tot         -0.216  -0.135   1.674   1.323