 vasp.5.4.4.18Apr17-6-g9f103f2a35 (build Feb 25 2019 10:51:38) complex

 executed on             LinuxIFC date 2021.03.06  03:24:42

 INCAR:
 POTCAR:    PAW_PBE C 08Apr2002
 POTCAR:    PAW_PBE N 08Apr2002
 POTCAR:    PAW_PBE Fe 06Sep2000

 POTCAR:    PAW_PBE C 08Apr2002
   VRHFIN =C: s2p2

   TITEL  = PAW_PBE C 08Apr2002
   POMASS =   12.011; ZVAL   =    4.000    mass and valenz
   ENMAX  =  400.000; ENMIN  =  300.000 eV

 POTCAR:    PAW_PBE N 08Apr2002
   VRHFIN =N: s2p3

   TITEL  = PAW_PBE N 08Apr2002
   POMASS =   14.001; ZVAL   =    5.000    mass and valenz
   ENMAX  =  400.000; ENMIN  =  300.000 eV

 POTCAR:    PAW_PBE Fe 06Sep2000
   VRHFIN =Fe:  d7 s1

   TITEL  = PAW_PBE Fe 06Sep2000
   POMASS =   55.847; ZVAL   =    8.000    mass and valenz
   ENMAX  =  267.882; ENMIN  =  200.911 eV

  PAW_PBE C 08Apr2002                   :
  PAW_PBE N 08Apr2002                   :
  PAW_PBE Fe 06Sep2000                  :

 POSCAR:  C  N Fe
  positions in cartesian coordinates
 exchange correlation table for  LEXCH =        8
   RHO(1)=    0.500       N(1)  =     2000
   RHO(2)=  100.500       N(2)  =     4000

 VTST: version 3.2, (02/03/18)

 CHAIN: initializing optimizer

 OPT: Using VASP Conjugate-Gradient optimizer
 CHAIN: Read ICHAIN            0

 POSCAR:  C  N Fe
  positions in cartesian coordinates

 ion  position               nearest neighbor table
   1  0.221  0.999  0.500-   3 1.41   4 1.41  17 1.42
   2  0.055  0.100  0.500-  34 1.42   7 1.43   3 1.43
   3  0.110  0.999  0.500-   1 1.41  15 1.43   2 1.43
   4  0.277  0.096  0.500-  19 1.41   1 1.41   5 1.42
   5  0.223  0.195  0.500-   4 1.42   8 1.42   7 1.42
   6  0.057  0.300  0.500-   7 1.44  38 1.44  10 1.44
   7  0.111  0.198  0.500-   5 1.42   2 1.43   6 1.44
   8  0.281  0.291  0.500-  51 1.38  53 1.38   5 1.42
   9  0.064  0.498  0.500-  10 1.46  12 1.47  42 1.47
  10  0.119  0.396  0.499-  51 1.41   6 1.44   9 1.46
  11  0.058  0.699  0.500-  46 1.43  16 1.44  12 1.45
  12  0.119  0.601  0.500-  52 1.38  11 1.45   9 1.47
  13  0.278  0.704  0.501-  52 1.38  14 1.41  25 1.43
  14  0.223  0.802  0.501-  13 1.41  16 1.42  17 1.42
  15  0.056  0.899  0.500-  50 1.41  16 1.43   3 1.43
  16  0.111  0.800  0.500-  14 1.42  15 1.43  11 1.44
  17  0.278  0.900  0.500-  28 1.41  14 1.42   1 1.42
  18  0.556  0.999  0.500-  20 1.41  21 1.42  30 1.42
  19  0.389  0.096  0.500-  23 1.41   4 1.41  20 1.42
  20  0.445  0.998  0.500-  18 1.41  19 1.42  28 1.42
  21  0.611  0.097  0.499-  22 1.41  32 1.42  18 1.42
  22  0.555  0.195  0.500-  54 1.38  21 1.41  23 1.43
  23  0.443  0.194  0.500-  53 1.39  19 1.41  22 1.43
  24  0.553  0.608  0.500-  55 1.38  56 1.38  26 1.42
  25  0.391  0.705  0.500-  56 1.39  29 1.41  13 1.43
  26  0.611  0.704  0.500-  27 1.42  24 1.42  44 1.42
  27  0.556  0.803  0.500-  29 1.41  30 1.42  26 1.42
  28  0.389  0.901  0.500-  17 1.41  29 1.42  20 1.42
  29  0.445  0.803  0.500-  25 1.41  27 1.41  28 1.42
  30  0.612  0.900  0.500-  48 1.41  27 1.42  18 1.42
  31  0.889  1.000  0.500-  33 1.41  34 1.44  50 1.44
  32  0.722  0.099  0.500-  21 1.42  33 1.43  37 1.44
  33  0.778  1.000  0.500-  31 1.41  32 1.43  48 1.43
  34  0.943  0.100  0.500-   2 1.42  31 1.44  35 1.44
  35  0.888  0.201  0.500-  37 1.43  34 1.44  38 1.44
  36  0.715  0.299  0.500-  54 1.38  37 1.45  41 1.47
  37  0.775  0.200  0.500-  35 1.43  32 1.44  36 1.45
  38  0.943  0.301  0.500-   6 1.44  35 1.44  39 1.44
  39  0.886  0.401  0.500-  38 1.44  42 1.46  41 1.47
  40  0.715  0.503  0.501-  55 1.41  45 1.44  41 1.45
  41  0.770  0.401  0.500-  40 1.45  36 1.47  39 1.47
  42  0.948  0.498  0.500-  43 1.44  39 1.46   9 1.47
  43  0.890  0.598  0.500-  45 1.44  46 1.44  42 1.44
  44  0.723  0.701  0.500-  26 1.42  49 1.43  45 1.44
  45  0.777  0.599  0.500-  44 1.44  43 1.44  40 1.44
  46  0.946  0.698  0.500-  11 1.43  47 1.44  43 1.44
  47  0.891  0.799  0.500-  49 1.42  50 1.44  46 1.44
  48  0.724  0.900  0.500-  30 1.41  33 1.43  49 1.43
  49  0.779  0.800  0.500-  47 1.42  44 1.43  48 1.43
  50  0.944  0.899  0.500-  15 1.41  47 1.44  31 1.44
  51  0.230  0.388  0.498-   8 1.38  10 1.41  57 1.91
  52  0.228  0.607  0.501-  13 1.38  12 1.38  57 1.97
  53  0.390  0.291  0.502-   8 1.38  23 1.39  58 1.96
  54  0.606  0.292  0.500-  22 1.38  36 1.38  58 1.97
  55  0.604  0.511  0.502-  24 1.38  40 1.41  58 1.91
  56  0.444  0.608  0.499-  24 1.38  25 1.39  57 1.96
  57  0.337  0.495  0.494-  51 1.91  56 1.96  52 1.97  58 2.33
  58  0.497  0.404  0.506-  55 1.91  53 1.96  54 1.97  57 2.33

  LATTYP: Found a triclinic cell.
 ALAT       =    34.4646957601
 B/A-ratio  =     0.3641481713
 C/A-ratio  =     0.5796768412
 COS(alpha) =     0.0000129923
 COS(beta)  =     0.5799505641
 COS(gamma) =     0.7269903478

  Lattice vectors:

 A1 = (  12.6336598582, -25.0769910814, -19.9837536695)
 A2 = (  -0.0218489691, -12.5502369110,  -0.0003405478)
 A3 = (   0.0069686156,   0.0002704107, -19.9783847543)

Analysis of symmetry for initial positions (statically):
 Subroutine PRICEL returns:
 Original cell was already a primitive cell.

 Routine SETGRP: Setting up the symmetry group for a
 triclinic supercell.

 Subroutine GETGRP returns: Found  1 space group operations
 (whereof  1 operations were pure point group operations)
 out of a pool of  2 trial point group operations.

The static configuration has the point symmetry C_1 .

Analysis of symmetry for dynamics (positions and initial velocities):
 Subroutine PRICEL returns:
 Original cell was already a primitive cell.

[...]

The dynamic configuration has the point symmetry C_1 .

Analysis of structural, dynamic, and magnetic symmetry:
 Subroutine PRICEL returns:
 Original cell was already a primitive cell.

 Routine SETGRP: Setting up the symmetry group for a
 triclinic supercell.

 Subroutine GETGRP returns: Found  1 space group operations
 (whereof  1 operations were pure point group operations)
 out of a pool of  2 trial point group operations.

The magnetic configuration has the point symmetry C_1 .

 Subroutine INISYM returns: Found  1 space group operations
 (whereof  1 operations are pure point group operations),
 and found     1 'primitive' translations

 KPOINTS: KPOINTS created by Atomic Simulation Env

Automatic generation of k-mesh.
Space group operators:
 irot       det(A)        alpha          n_x          n_y          n_z        tau_x        tau_y        tau_z
    1     1.000000     0.000001     1.000000     0.000000     0.000000     0.000000     0.000000     0.000000

 Subroutine IBZKPT returns following result:

 Found      2 irreducible k-points:

 Following reciprocal coordinates:
            Coordinates               Weight
  0.250000  0.250000 -0.000000      2.000000
 -0.250000  0.250000  0.000000      2.000000

 Following cartesian coordinates:
            Coordinates               Weight
  0.019695  0.019886  0.000007      2.000000
 -0.019768  0.019954 -0.000007      2.000000

 Subroutine IBZKPT_HF returns following result:

 Found      4 k-points in 1st BZ
 the following      4 k-points will be used (e.g. in the exchange kernel)
 Following reciprocal coordinates:   # in IRBZ
  0.250000  0.250000 -0.000000    0.25000000   1 t-inv F
 -0.250000  0.250000  0.000000    0.25000000   2 t-inv F
 -0.250000 -0.250000  0.000000    0.25000000   1 t-inv T
  0.250000 -0.250000 -0.000000    0.25000000   2 t-inv T

 SYSTEM =  unknown system
 POSCAR =   C  N Fe

 Startparameter for this run:
   NWRITE =      2    write-flag & timer
   PREC   = accura    normal or accurate (medium, high low for compatibility)
   ISTART =      1    job   : 0-new  1-cont  2-samecut
   ICHARG =      0    charge: 1-file 2-atom 10-const
   ISPIN  =      2    spin polarized calculation?
   LNONCOLLINEAR =      F non collinear calculations
   LSORBIT =      F    spin-orbit coupling
   INIWAV =      1    electr: 0-lowe 1-rand  2-diag
   LASPH  =      T    aspherical Exc in radial PAW
   METAGGA=      F    non-selfconsistent MetaGGA calc.

 Electronic Relaxation 1
   ENCUT  =  500.0 eV  36.75 Ry    6.06 a.u.  23.10 22.88 36.43*2*pi/ulx,y,z
   ENINI  =  500.0     initial cutoff
   ENAUG  =  644.9 eV  augmentation charge cutoff
   NELM   =    250;   NELMIN=  2; NELMDL=  0     # of ELM steps
   EDIFF  = 0.1E-03   stopping-criterion for ELM
   LREAL  =      F    real-space projection
   NLSPLINE    = F    spline interpolate recip. space projectors
   LCOMPAT=      F    compatible to vasp.4.4
   GGA_COMPAT  = T    GGA compatible to vasp.4.4-vasp.4.6
   LMAXPAW     = -100 max onsite density
   LMAXMIX     =    2 max onsite mixed and CHGCAR
   VOSKOWN=      0    Vosko Wilk Nusair interpolation
   ROPT   =    0.00000   0.00000   0.00000
 Ionic relaxation
   EDIFFG = -.3E-01   stopping-criterion for IOM
   NSW    =      0    number of steps for IOM
   NBLOCK =      1;   KBLOCK =      1    inner block; outer block
   IBRION =     -1    ionic relax: 0-MD 1-quasi-New 2-CG
   NFREE  =      1    steps in history (QN), initial steepest desc. (CG)
   ISIF   =      2    stress and relaxation
   IWAVPR =     10    prediction:  0-non 1-charg 2-wave 3-comb
   ISYM   =      3    0-nonsym 1-usesym 2-fastsym
   LCORR  =      T    Harris-Foulkes like correction to forces

   POTIM  = 0.5000    time-step for ionic-motion
   TEIN   =    0.0    initial temperature
   TEBEG  =    0.0;   TEEND  =   0.0 temperature during run
   SMASS  =  -3.00    Nose mass-parameter (am)
   estimated Nose-frequenzy (Omega)   =  0.10E-29 period in steps =****** mass=  -0.367E-26a.u.
   SCALEE = 1.0000    scale energy and forces
   NPACO  =    256;   APACO  = 16.0  distance and # of slots for P.C.
   PSTRESS=    0.0 pullay stress

  Mass of Ions in am
   POMASS =  12.01 14.00 55.85
  Ionic Valenz
   ZVAL   =   4.00  5.00  8.00
  Atomic Wigner-Seitz radii
  virtual crystal weights
   VCA    =   1.00  1.00  1.00
   NELECT =     246.0000    total number of electrons
   NUPDOWN=      -1.0000    fix difference up-down

 DOS related values:
   EMIN   =  10.00;   EMAX   =-10.00  energy-range for DOS
   EFERMI =   0.00
   ISMEAR =     0;   SIGMA  =   0.10  broadening in eV -4-tet -1-fermi 0-gaus

 Electronic relaxation 2 (details)
   IALGO  =     53    algorithm
   LDIAG  =      T    sub-space diagonalisation (order eigenvalues)
   LSUBROT=      F    optimize rotation matrix (better conditioning)
   TURBO    =      0    0=normal 1=particle mesh
   IRESTART =      0    0=no restart 2=restart with 2 vectors
   NREBOOT  =      0    no. of reboots
   NMIN     =      0    reboot dimension
   EREF     =   0.00    reference energy to select bands
   IMIX   =      4    mixing-type and parameters
     AMIX     =   0.40;   BMIX     =  1.00
     AMIX_MAG =   1.60;   BMIX_MAG =  1.00
     AMIN     =   0.10
     WC   =   100.;   INIMIX=   1;  MIXPRE=   1;  MAXMIX= -45

 Intra band minimization:
   WEIMIN = 0.0000     energy-eigenvalue tresh-hold
   EBREAK =  0.16E-06  absolut break condition
   DEPER  =   0.30     relativ break condition

   TIME   =   0.20     timestep for ELM

  volume/ion in A,a.u.               =      54.77       369.63
  Fermi-wavevector in a.u.,A,eV,Ry     =   0.697782  1.318616  6.624668  0.486899
  Thomas-Fermi vector in A             =   1.781204

[...]
   35        0.860   1.751   0.000   2.611
   36        0.848   1.691   0.000   2.540
   37        0.861   1.757   0.000   2.618
   38        0.856   1.744   0.000   2.600
   39        0.851   1.707   0.000   2.558
   40        0.843   1.691   0.000   2.534
   41        0.841   1.719   0.000   2.560
   42        0.851   1.707   0.000   2.557
   43        0.856   1.744   0.000   2.600
   44        0.866   1.761   0.000   2.627
   45        0.858   1.749   0.000   2.607
   46        0.860   1.751   0.000   2.611
   47        0.864   1.762   0.000   2.626
   48        0.867   1.770   0.000   2.637
   49        0.866   1.773   0.000   2.638
   50        0.866   1.768   0.000   2.634
   51        1.225   2.688   0.000   3.913
   52        1.230   2.687   0.000   3.917
   53        1.223   2.689   0.000   3.912
   54        1.230   2.686   0.000   3.917
   55        1.225   2.688   0.000   3.912
   56        1.223   2.689   0.000   3.912
   57        0.454   0.538   6.098   7.090
   58        0.454   0.538   6.100   7.092
tot         51.391 105.262  12.198 168.851

 magnetization (x)

[...]

  FORCE on cell =-STRESS in cart. coord.  units (eV):
  Direction    XX          YY          ZZ          XY          YZ          ZX
  Alpha Z   102.90371   102.90371   102.90371
  Ewald   48694.31705 48535.28168-57298.54363    -2.35475     1.91219   -34.38412
  Hartree 48001.02640 47976.44777-47424.19495     4.33344    -1.13778   -30.23808
  E(xc)    -722.86386  -722.36491  -737.59312     0.08782     0.50331    -0.10995
  Local  -99309.88356-99153.02105101565.56419    -7.01285     5.53717    62.95181
  n-local  -167.54959  -169.81661  -169.14445    -2.33334    -2.35129     0.84328
  augment    55.33924    50.28044    62.59421    -2.03205    -4.19712     0.17544
  Kinetic  3651.27224  3671.02753  4216.80285     3.30718    -4.28424     0.82908
  Fock     -339.91076  -335.15572  -318.87641     3.31187     3.88857     0.12901
  Total     -35.34913   -44.41715    -0.48760    -2.69268    -0.12919     0.19646
  in kB     -17.82742   -22.40064    -0.24591    -1.35798    -0.06515     0.09908

 VOLUME and BASIS-vectors are now :
  energy-cutoff  :      500.00
  volume of cell :     3176.88
      direct lattice vectors                 reciprocal lattice vectors
    12.670389181  0.023212330 -0.004687820     0.078924436 -0.000137402  0.000027528
     0.021848969 12.550236911  0.000340548    -0.000145975  0.079680025  0.000001028
    -0.006968616 -0.000270411 19.978384754     0.000018522 -0.000001390  0.050054103

  length of vectors
    12.670411311 12.550255934 19.978385971     0.078924560  0.079680159  0.050054106

 FORCES acting on ions:
    Electron-Ion                     Ewald-Force                    Non-Local-Force
   0.732E+01 0.275E+01 -.693E+00   -.741E+01 -.294E+01 0.680E+00   0.175E+00 0.353E+00 0.248E-01
   0.488E+01 0.489E+00 0.594E+00   -.509E+01 -.642E+00 -.595E+00   0.290E+00 0.147E+00 0.604E-02
   0.139E+02 -.119E+00 0.120E+00   -.140E+02 0.741E-01 -.112E+00   0.143E+00 0.523E-01 -.154E-02
   0.108E+02 0.959E+01 -.248E+01   -.110E+02 -.103E+02 0.255E+01   0.676E-01 0.492E+00 -.651E-01
   0.191E+02 0.129E+02 -.240E+01   -.199E+02 -.139E+02 0.237E+01   0.807E+00 0.113E+01 0.114E-01
   0.196E+02 -.300E+01 -.632E+00   -.201E+02 0.333E+01 0.601E+00   0.755E+00 -.124E+00 0.673E-02
   0.201E+02 0.174E+01 0.740E+00   -.208E+02 -.174E+01 -.796E+00   0.649E+00 -.588E-02 0.586E-01
   0.250E+02 0.288E+02 -.375E+01   -.278E+02 -.325E+02 0.392E+01   0.230E+01 0.363E+01 -.239E+00
   0.156E+02 -.976E+00 -.138E+00   -.156E+02 0.112E+01 0.170E+00   0.151E+00 -.431E-01 -.308E-01
   0.402E+02 -.143E+02 0.867E+00   -.449E+02 0.147E+02 -.719E+00   0.428E+01 -.598E+00 -.178E+00
   0.139E+02 0.375E+01 -.130E+01   -.143E+02 -.399E+01 0.128E+01   0.412E+00 0.742E-01 0.344E-01
   0.478E+02 0.153E+02 -.412E+01   -.515E+02 -.156E+02 0.411E+01   0.351E+01 0.442E+00 -.482E-02
   0.234E+01 -.334E+02 -.649E+01   -.104E+01 0.365E+02 0.651E+01   -.104E+01 -.298E+01 -.725E-01
   0.994E+01 -.131E+02 -.418E+01   -.987E+01 0.137E+02 0.417E+01   0.510E-01 -.544E+00 -.174E-01
   0.180E+01 -.115E+01 0.258E+00   -.186E+01 0.117E+01 -.263E+00   0.192E+00 -.679E-01 0.144E-01
   0.180E+02 -.280E+01 -.197E+01   -.183E+02 0.300E+01 0.198E+01   0.352E+00 -.741E-01 -.767E-02
   0.941E+01 -.396E+01 -.147E+01   -.920E+01 0.404E+01 0.145E+01   -.112E+00 -.186E+00 0.207E-01
   -.948E+01 0.396E+01 0.229E+01   0.928E+01 -.404E+01 -.227E+01   0.122E+00 0.177E+00 -.206E-01
   0.180E+01 0.150E+02 0.479E+00   -.158E+01 -.156E+02 -.488E+00   -.756E-01 0.774E+00 0.261E-01
   0.760E+00 0.431E+01 0.150E+01   -.402E+00 -.465E+01 -.151E+01   -.251E+00 0.316E+00 0.716E-02
   -.995E+01 0.132E+02 0.469E+01   0.988E+01 -.138E+02 -.469E+01   -.463E-01 0.535E+00 0.221E-01
   -.240E+01 0.333E+02 0.625E+01   0.109E+01 -.365E+02 -.628E+01   0.105E+01 0.297E+01 0.783E-01
   -.965E+01 0.340E+02 0.821E+00   0.120E+02 -.380E+02 -.105E+01   -.179E+01 0.346E+01 0.215E+00
   -.250E+02 -.287E+02 0.282E+01   0.277E+02 0.324E+02 -.301E+01   -.231E+01 -.362E+01 0.253E+00
   0.982E+01 -.339E+02 -.135E+01   -.122E+02 0.379E+02 0.156E+01   0.179E+01 -.346E+01 -.204E+00
   -.191E+02 -.131E+02 0.222E+01   0.199E+02 0.141E+02 -.220E+01   -.808E+00 -.112E+01 -.101E-01
   -.109E+02 -.960E+01 0.288E+01   0.110E+02 0.103E+02 -.295E+01   -.712E-01 -.486E+00 0.677E-01
   -.787E+00 -.423E+01 -.596E+00   0.428E+00 0.457E+01 0.601E+00   0.258E+00 -.308E+00 -.303E-02
   -.187E+01 -.152E+02 -.160E+00   0.166E+01 0.158E+02 0.168E+00   0.724E-01 -.766E+00 -.231E-01
   -.728E+01 -.277E+01 0.149E+01   0.737E+01 0.296E+01 -.148E+01   -.168E+00 -.364E+00 -.209E-01
   -.828E+01 0.152E+00 0.293E-01   0.838E+01 -.119E+00 -.242E-01   0.333E-01 -.272E-01 -.107E-01
   -.179E+02 0.276E+01 0.253E+01   0.183E+02 -.296E+01 -.254E+01   -.347E+00 0.705E-01 0.506E-02
   -.177E+01 0.120E+01 0.515E+00   0.183E+01 -.122E+01 -.512E+00   -.180E+00 0.696E-01 -.123E-01
   0.676E+01 -.313E+01 -.374E-01   -.701E+01 0.320E+01 0.298E-01   0.143E+00 -.109E+00 0.243E-02
   -.591E+01 -.444E+01 -.216E+00   0.624E+01 0.477E+01 0.229E+00   -.190E+00 -.220E+00 -.151E-01
   -.478E+02 -.153E+02 0.411E+01   0.516E+02 0.156E+02 -.410E+01   -.350E+01 -.451E+00 0.899E-02
   -.140E+02 -.375E+01 0.185E+01   0.143E+02 0.400E+01 -.183E+01   -.409E+00 -.756E-01 -.314E-01
   0.434E+01 -.491E+01 -.531E+00   -.485E+01 0.516E+01 0.541E+00   0.270E+00 -.250E+00 -.476E-02
   0.341E+01 -.424E+01 0.170E+00   -.342E+01 0.427E+01 -.170E+00   0.155E+00 -.685E-01 0.973E-03
   -.401E+02 0.143E+02 -.122E+01   0.449E+02 -.147E+02 0.106E+01   -.428E+01 0.587E+00 0.190E+00
   -.156E+02 0.105E+01 0.188E+00   0.156E+02 -.120E+01 -.222E+00   -.154E+00 0.269E-01 0.361E-01
   -.337E+01 0.426E+01 0.219E+00   0.338E+01 -.429E+01 -.215E+00   -.152E+00 0.943E-01 -.183E-02
   -.441E+01 0.498E+01 0.115E+01   0.493E+01 -.523E+01 -.116E+01   -.282E+00 0.263E+00 0.755E-02
   -.201E+02 -.171E+01 -.604E+00   0.208E+02 0.171E+01 0.661E+00   -.648E+00 0.717E-02 -.599E-01
   -.195E+02 0.290E+01 0.809E+00   0.201E+02 -.323E+01 -.780E+00   -.771E+00 0.121E+00 -.369E-02
   0.606E+01 0.433E+01 0.101E+01   -.640E+01 -.465E+01 -.102E+01   0.193E+00 0.225E+00 0.180E-01
   -.685E+01 0.324E+01 0.806E+00   0.710E+01 -.331E+01 -.798E+00   -.144E+00 0.102E+00 -.356E-02
   -.139E+02 0.131E+00 0.560E+00   0.140E+02 -.840E-01 -.566E+00   -.136E+00 -.424E-01 -.977E-03
   -.484E+01 -.560E+00 0.242E-01   0.504E+01 0.710E+00 -.251E-01   -.295E+00 -.145E+00 -.299E-02
   0.834E+01 -.178E+00 0.828E+00   -.844E+01 0.148E+00 -.833E+00   -.233E-01 0.142E-01 0.120E-01
   0.325E+02 -.398E+02 0.142E+02   -.250E+02 0.558E+02 -.148E+02   -.709E+01 -.158E+02 0.704E+00
   0.194E+02 0.381E+02 -.128E+02   -.914E+01 -.557E+02 0.133E+02   -.101E+02 0.167E+02 -.456E+00
   -.111E+02 -.253E+02 -.130E+02   0.200E+02 0.402E+02 0.141E+02   -.893E+01 -.138E+02 -.112E+01
   -.195E+02 -.380E+02 0.119E+02   0.923E+01 0.556E+02 -.123E+02   0.101E+02 -.167E+02 0.388E+00
   -.326E+02 0.398E+02 -.161E+02   0.251E+02 -.557E+02 0.168E+02   0.708E+01 0.158E+02 -.795E+00
   0.111E+02 0.252E+02 0.110E+02   -.199E+02 -.401E+02 -.121E+02   0.889E+01 0.138E+02 0.104E+01
   0.477E+01 0.148E+02 0.875E+02   -.985E+01 -.111E+02 -.858E+02   0.386E+01 -.227E+01 -.185E+01
   -.469E+01 -.147E+02 -.910E+02   0.978E+01 0.111E+02 0.893E+02   -.387E+01 0.227E+01 0.188E+01
   0.289E-01 -.119E-02 0.157E+00   -.121E-12 0.398E-12 0.000E+00   -.255E-01 -.153E-02 -.140E+00

 POSITION                                       TOTAL-FORCE (eV/Angst)
      2.82437     12.53980      9.99381         0.090905      0.186765      0.012860
      0.69537      1.25093      9.98804         0.091499      0.002869      0.005219
      1.41227     12.54634      9.99076        -0.003879      0.009434      0.006486
      3.51081      1.21430      9.99699        -0.073313     -0.194448      0.001364
      2.82222      2.45197      9.99535         0.094998      0.171375     -0.013023
      0.72768      3.76423      9.98699         0.277153      0.204151     -0.024619
      1.40358      2.49357      9.98732         0.010073     -0.007068      0.005670
      3.56499      3.66060      9.99457        -0.337027      0.138246     -0.076864
      0.81970      6.25095      9.98671         0.091440      0.095417      0.000162
      1.51485      4.97269      9.97718        -0.271649     -0.180007     -0.039254
      0.75289      8.77142      9.99467         0.106093     -0.159492      0.013613
      1.51755      7.54136      9.99770        -0.046400      0.135279     -0.018389
      3.53694      8.84484     10.00109         0.207556     -0.019176     -0.060046
      2.83744     10.07004     10.00149         0.115973      0.019574     -0.021951
      0.72144     11.28967      9.99078         0.132698     -0.053666      0.010013
      1.42204     10.04291      9.99703        -0.007794      0.127649      0.003067
      3.53323     11.30774      9.99513         0.094432     -0.113035      0.005401
      7.06309     12.54638      9.97844        -0.078790      0.106133     -0.003727
      4.92547      1.21821      9.99054         0.129115      0.197379      0.019279
      5.65474     12.54028      9.98428         0.100003     -0.007248      0.001621
      7.73717      1.23402      9.97320        -0.113953     -0.026721      0.024316
      7.03799      2.45927      9.97755        -0.196155      0.009220      0.058693
      5.61309      2.44938      9.99527         0.493845     -0.385106      0.000524
      7.01149      7.64294      9.98780         0.327895     -0.139156      0.073200
      4.96213      8.85429      9.98477        -0.487190      0.391968     -0.004352
      7.75381      8.85133      9.98273        -0.092608     -0.152943      0.011231
      7.06448     10.08890      9.97844         0.073475      0.203638      0.001388
      4.94169     11.31323      9.98951        -0.093042      0.011564      0.001638
      5.64967     10.08508      9.98553        -0.132217     -0.183286     -0.017277
      7.77215     11.31426      9.97962        -0.086171     -0.198968     -0.011270
     11.28587     12.56910      9.98377         0.118376      0.005402     -0.006315
      9.15261      1.26114      9.97649         0.011533     -0.129286     -0.003688
      9.87477     12.56449      9.98158        -0.121710      0.054492     -0.010025
     11.94704      1.28181      9.98396        -0.079206     -0.047565     -0.005116
     11.25001      2.54343      9.98424         0.129494      0.096518     -0.003882
      9.05795      3.76289      9.97990         0.056466     -0.146323      0.015961
      9.82247      2.53246      9.97960        -0.110182      0.166612     -0.011547
     11.95647      3.80179      9.98530        -0.229587     -0.015153      0.004527
     11.23082      5.04981      9.98622         0.161309     -0.052703      0.001377
      9.06183      6.33135     10.00232         0.267162      0.173563      0.037038
      9.75674      5.05317      9.99069        -0.103655     -0.118809      0.002801
     12.01597      6.27595      9.98453        -0.159069      0.077686      0.001447
     11.29050      7.52439      9.98439         0.219309      0.023162     -0.000890
      9.17243      8.81003      9.98866        -0.003599      0.007398     -0.006459
      9.84912      7.53954      9.98946        -0.297051     -0.206952      0.026116
     11.99597      8.78326      9.98407        -0.131991     -0.085448      0.007893
     11.29854     10.04544      9.98351         0.083555      0.033825      0.004722
      9.18428     11.30744      9.98214         0.009239      0.003372     -0.006087
      9.88004     10.05287      9.98511        -0.100669     -0.002691     -0.004110
     11.98084     11.30872      9.98330        -0.113110     -0.016675      0.007954
      2.92095      4.87492      9.95041        -0.169036     -1.198043      0.158535
      2.89829      7.62380     10.00132        -0.713657      0.509609      0.009955
      4.94663      3.66587     10.02345        -0.820080     -0.019746     -0.050429
      7.67716      3.68011      9.97930         0.700583     -0.497198     -0.013353
      7.65557      6.42860     10.03350         0.166485      1.208283     -0.166253
      5.62988      7.63852      9.96069         0.805820     -0.000913      0.045901
      4.27599      6.21791      9.87051        -0.889957      1.169582     -0.118110
      6.30059      5.08632     10.11552         0.896259     -1.182341      0.117065
    total drift:                                0.000251     -0.000834     -0.000198

  FREE ENERGIE OF THE ION-ELECTRON SYSTEM (eV)
  free  energy   TOTEN  =      -611.28589996 eV

  energy  without entropy=     -611.28589900  energy(sigma->0) =     -611.28589948

 stress matrix after NEB project (eV)
    -35.34913     -2.69250      0.19646
     -2.69268    -44.41715     -0.13820
      0.18318     -0.12919     -0.48760
  FORCES: max atom, RMS     1.488259    0.469581
  FORCE total and by dimension    3.576226    1.208283
  Stress total and by dimension   56.897186   44.417145
 writing wavefunctions
 vacuum level on the upper side and lower side of the slab         1.483         1.483

 total charge

[...]

 magnetization (x)

# of ion       s       p       d       tot
    1       -0.000  -0.001   0.000  -0.001
    2        0.000   0.003   0.000   0.004
    3       -0.000   0.001   0.000   0.001
    4        0.001   0.012   0.000   0.013
    5        0.000   0.005   0.000   0.005
    6        0.001   0.006   0.000   0.007
    7       -0.000  -0.005   0.000  -0.005
    8        0.002   0.015   0.000   0.016
    9        0.001   0.014   0.000   0.015
   10       -0.001  -0.021   0.000  -0.022
   11        0.001   0.005   0.000   0.006
   12       -0.000  -0.013   0.000  -0.013
   13        0.000  -0.002   0.000  -0.002
   14        0.000   0.003   0.000   0.003
   15        0.000   0.005   0.000   0.005
   16       -0.000  -0.006   0.000  -0.007
   17        0.000   0.004   0.000   0.004
   18       -0.000  -0.004   0.000  -0.004
   19       -0.000  -0.002   0.000  -0.002
   20        0.000   0.001   0.000   0.001
   21       -0.000  -0.003   0.000  -0.003
   22       -0.000   0.002   0.000   0.002
   23        0.001   0.016   0.000   0.017
   24       -0.002  -0.015   0.000  -0.016
   25       -0.001  -0.017   0.000  -0.018
   26       -0.000  -0.005   0.000  -0.005
   27       -0.001  -0.012   0.000  -0.013
   28       -0.000  -0.001   0.000  -0.001
   29        0.000   0.002   0.000   0.002
   30        0.000   0.001   0.000   0.001
   31        0.001   0.006   0.000   0.007
   32        0.000   0.006   0.000   0.007
   33       -0.000  -0.005   0.000  -0.005
   34       -0.001  -0.009   0.000  -0.010
   35        0.001   0.007   0.000   0.008
   36        0.000   0.013   0.000   0.013
   37       -0.001  -0.005   0.000  -0.007
   38       -0.001  -0.009   0.000  -0.010
   39        0.001   0.006   0.000   0.007
   40        0.001   0.021   0.000   0.022
   41       -0.001  -0.014   0.000  -0.016
   42       -0.001  -0.006   0.000  -0.007
   43        0.001   0.009   0.000   0.009
   44        0.000   0.005   0.000   0.005
   45       -0.001  -0.007   0.000  -0.007
   46       -0.001  -0.007   0.000  -0.008
   47        0.001   0.009   0.000   0.010
   48        0.000  -0.001   0.000  -0.001
   49       -0.000  -0.003   0.000  -0.004
   50       -0.001  -0.007   0.000  -0.007
   51       -0.002  -0.021   0.000  -0.024
   52        0.010   0.023   0.000   0.033
   53        0.012   0.039   0.000   0.051
   54       -0.010  -0.024   0.000  -0.034
   55        0.002   0.021   0.000   0.024
   56       -0.012  -0.039   0.000  -0.051
   57        0.044   0.039   3.159   3.242
   58       -0.044  -0.040  -3.152  -3.236
tot         -0.000  -0.004   0.007   0.003