 vasp.5.4.4.18Apr17-6-g9f103f2a35 (build Feb 25 2019 10:51:38) complex

 executed on             LinuxIFC date 2022.01.27  17:04:50

 INCAR:
 POTCAR:    PAW_PBE C 08Apr2002
 POTCAR:    PAW_PBE N 08Apr2002
 POTCAR:    PAW_PBE Fe 06Sep2000
 POTCAR:    PAW_PBE Zn 06Sep2000

 POTCAR:    PAW_PBE C 08Apr2002
   VRHFIN =C: s2p2

   TITEL  = PAW_PBE C 08Apr2002
   POMASS =   12.011; ZVAL   =    4.000    mass and valenz
   ENMAX  =  400.000; ENMIN  =  300.000 eV

 POTCAR:    PAW_PBE N 08Apr2002
   VRHFIN =N: s2p3

   TITEL  = PAW_PBE N 08Apr2002
   POMASS =   14.001; ZVAL   =    5.000    mass and valenz
   ENMAX  =  400.000; ENMIN  =  300.000 eV

 POTCAR:    PAW_PBE Fe 06Sep2000
   VRHFIN =Fe:  d7 s1

   TITEL  = PAW_PBE Fe 06Sep2000
   POMASS =   55.847; ZVAL   =    8.000    mass and valenz
   ENMAX  =  267.882; ENMIN  =  200.911 eV

 POTCAR:    PAW_PBE Zn 06Sep2000
   VRHFIN =Zn: d10 p2

   TITEL  = PAW_PBE Zn 06Sep2000
   POMASS =   65.390; ZVAL   =   12.000    mass and valenz
   ENMAX  =  276.723; ENMIN  =  207.542 eV

  PAW_PBE C 08Apr2002                   :
  PAW_PBE N 08Apr2002                   :
  PAW_PBE Fe 06Sep2000                  :
  PAW_PBE Zn 06Sep2000                  :

 POSCAR:  C  N Fe Zn
  positions in cartesian coordinates
 exchange correlation table for  LEXCH =        8
   RHO(1)=    0.500       N(1)  =     2000
   RHO(2)=  100.500       N(2)  =     4000

 VTST: version 3.2, (02/03/18)

 CHAIN: initializing optimizer

 OPT: Using VASP Conjugate-Gradient optimizer
 CHAIN: Read ICHAIN            0

 POSCAR:  C  N Fe Zn
  positions in cartesian coordinates

 ion  position               nearest neighbor table
   1  0.223  0.000  0.498-  19 1.43   3 1.43   4 1.44
   2  0.057  0.101  0.502-   3 1.42  37 1.43   7 1.44
   3  0.111  0.000  0.500-   2 1.42   1 1.43  17 1.43
   4  0.278  0.101  0.501-  21 1.42   5 1.44   1 1.44
   5  0.225  0.203  0.502-   7 1.43   4 1.44   8 1.45
   6  0.057  0.301  0.502-   7 1.43  41 1.43  11 1.44
   7  0.113  0.202  0.502-   6 1.43   5 1.43   2 1.44
   8  0.281  0.305  0.502-  25 1.44   5 1.45   9 1.46
   9  0.223  0.406  0.499-  54 1.39  11 1.44   8 1.46
  10  0.053  0.501  0.501-  14 1.42  45 1.43  11 1.43
  11  0.111  0.402  0.501-  10 1.43   6 1.44   9 1.44
  12  0.217  0.601  0.493-  54 1.39  14 1.42  15 1.43
  13  0.052  0.700  0.500-  14 1.42  49 1.43  18 1.43
  14  0.107  0.601  0.498-  12 1.42  10 1.42  13 1.42
  15  0.273  0.700  0.487-  16 1.41  12 1.43  29 1.48
  16  0.219  0.800  0.493-  15 1.41  18 1.43  19 1.44
  17  0.054  0.900  0.500-  18 1.42  53 1.42   3 1.43
  18  0.108  0.800  0.498-  17 1.42  16 1.43  13 1.43
  19  0.277  0.900  0.495-   1 1.43  31 1.44  16 1.44
  20  0.555  0.999  0.501-  33 1.41  23 1.42  22 1.42
  21  0.389  0.099  0.502-   4 1.42  26 1.43  22 1.43
  22  0.444  0.999  0.500-  20 1.42  21 1.43  31 1.43
  23  0.612  0.097  0.502-  24 1.41  20 1.42  35 1.42
  24  0.557  0.195  0.504-  23 1.41  27 1.41  26 1.42
  25  0.394  0.300  0.505-  55 1.38  26 1.43   8 1.44
  26  0.446  0.198  0.504-  24 1.42  21 1.43  25 1.43
  27  0.615  0.292  0.506-  28 1.40  39 1.41  24 1.41
  28  0.561  0.390  0.510-  56 1.36  55 1.37  27 1.40
  29  0.386  0.701  0.474-  57 1.37  15 1.48  32 1.48  59 2.14
  30  0.556  0.800  0.501-  58 1.37  33 1.42  32 1.43
  31  0.389  0.898  0.496-  32 1.43  22 1.43  19 1.44
  32  0.445  0.799  0.493-  31 1.43  30 1.43  29 1.48
  33  0.611  0.900  0.501-  20 1.41  51 1.42  30 1.42
  34  0.890  1.000  0.503-  53 1.42  36 1.42  37 1.44
  35  0.723  0.098  0.503-  36 1.42  23 1.42  40 1.43
  36  0.778  0.999  0.503-  35 1.42  34 1.42  51 1.43
  37  0.946  0.100  0.503-  38 1.42   2 1.43  34 1.44
  38  0.891  0.199  0.504-  40 1.42  37 1.42  41 1.43
  39  0.725  0.296  0.506-  27 1.41  40 1.41  44 1.43
  40  0.780  0.197  0.504-  39 1.41  38 1.42  35 1.43
  41  0.945  0.300  0.504-   6 1.43  38 1.43  42 1.43
  42  0.888  0.399  0.505-  44 1.42  45 1.42  41 1.43
  43  0.716  0.495  0.510-  56 1.38  44 1.44  48 1.45
  44  0.777  0.397  0.506-  42 1.42  39 1.43  43 1.44
  45  0.941  0.500  0.504-  42 1.42  10 1.43  46 1.44
  46  0.883  0.599  0.506-  45 1.44  49 1.44  48 1.45
  47  0.716  0.701  0.509-  58 1.36  52 1.44  48 1.46
  48  0.770  0.598  0.510-  46 1.45  43 1.45  47 1.46
  49  0.940  0.699  0.503-  50 1.42  13 1.43  46 1.44
  50  0.887  0.799  0.503-  52 1.42  49 1.42  53 1.44
  51  0.722  0.900  0.503-  33 1.42  52 1.42  36 1.43
  52  0.776  0.799  0.504-  51 1.42  50 1.42  47 1.44
  53  0.943  0.899  0.502-  34 1.42  17 1.42  50 1.44
  54  0.273  0.505  0.495-   9 1.39  12 1.39  59 1.86
  55  0.454  0.392  0.508-  28 1.37  25 1.38  59 1.86
  56  0.609  0.487  0.515-  28 1.36  43 1.38  60 2.21
  57  0.426  0.632  0.427-  29 1.37  59 1.72
  58  0.609  0.706  0.512-  47 1.36  30 1.37  60 2.13
  59  0.415  0.532  0.486-  57 1.72  55 1.86  54 1.86  29 2.14  60 2.44
  60  0.522  0.603  0.577-  58 2.13  56 2.21  59 2.44

  LATTYP: Found a simple orthorhombic cell.
 ALAT       =    12.4000000000
 B/A-ratio  =     1.0330645161
 C/A-ratio  =     1.6129032258

  Lattice vectors:

 A1 = (   0.0000000000, -12.4000000000,   0.0000000000)
 A2 = ( -12.8100000000,   0.0000000000,   0.0000000000)
 A3 = (   0.0000000000,   0.0000000000, -20.0000000000)

Analysis of symmetry for initial positions (statically):
 Subroutine PRICEL returns:
 Original cell was already a primitive cell.

 Routine SETGRP: Setting up the symmetry group for a
 simple orthorhombic supercell.

 Subroutine GETGRP returns: Found  1 space group operations
 (whereof  1 operations were pure point group operations)
 out of a pool of  8 trial point group operations.

The static configuration has the point symmetry C_1 .

Analysis of symmetry for dynamics (positions and initial velocities):
 Subroutine PRICEL returns:
 Original cell was already a primitive cell.

[...]

The dynamic configuration has the point symmetry C_1 .

Analysis of structural, dynamic, and magnetic symmetry:
 Subroutine PRICEL returns:
 Original cell was already a primitive cell.

 Routine SETGRP: Setting up the symmetry group for a
 simple orthorhombic supercell.

 Subroutine GETGRP returns: Found  1 space group operations
 (whereof  1 operations were pure point group operations)
 out of a pool of  8 trial point group operations.

The magnetic configuration has the point symmetry C_1 .

 Subroutine INISYM returns: Found  1 space group operations
 (whereof  1 operations are pure point group operations),
 and found     1 'primitive' translations

 KPOINTS: KPOINTS created by Atomic Simulation Env

Automatic generation of k-mesh.
Space group operators:
 irot       det(A)        alpha          n_x          n_y          n_z        tau_x        tau_y        tau_z
    1     1.000000     0.000000     1.000000     0.000000     0.000000     0.000000     0.000000     0.000000

 Subroutine IBZKPT returns following result:

 Found      2 irreducible k-points:

 Following reciprocal coordinates:
            Coordinates               Weight
  0.250000  0.250000  0.000000      2.000000
 -0.250000  0.250000  0.000000      2.000000

 Following cartesian coordinates:
            Coordinates               Weight
  0.019516  0.020161  0.000000      2.000000
 -0.019516  0.020161  0.000000      2.000000

 Subroutine IBZKPT_HF returns following result:

 Found      4 k-points in 1st BZ
 the following      4 k-points will be used (e.g. in the exchange kernel)
 Following reciprocal coordinates:   # in IRBZ
  0.250000  0.250000  0.000000    0.25000000   1 t-inv F
 -0.250000  0.250000  0.000000    0.25000000   2 t-inv F
 -0.250000 -0.250000  0.000000    0.25000000   1 t-inv T
  0.250000 -0.250000  0.000000    0.25000000   2 t-inv T

 SYSTEM =  unknown system
 POSCAR =   C  N Fe Zn

 Startparameter for this run:
   NWRITE =      2    write-flag & timer
   PREC   = accura    normal or accurate (medium, high low for compatibility)
   ISTART =      1    job   : 0-new  1-cont  2-samecut
   ICHARG =      0    charge: 1-file 2-atom 10-const
   ISPIN  =      2    spin polarized calculation?
   LNONCOLLINEAR =      F non collinear calculations
   LSORBIT =      F    spin-orbit coupling
   INIWAV =      1    electr: 0-lowe 1-rand  2-diag
   LASPH  =      T    aspherical Exc in radial PAW
   METAGGA=      F    non-selfconsistent MetaGGA calc.

 Electronic Relaxation 1
   ENCUT  =  500.0 eV  36.75 Ry    6.06 a.u.  23.36 22.61 36.46*2*pi/ulx,y,z
   ENINI  =  500.0     initial cutoff
   ENAUG  =  644.9 eV  augmentation charge cutoff
   NELM   =    250;   NELMIN=  2; NELMDL=  0     # of ELM steps
   EDIFF  = 0.1E-03   stopping-criterion for ELM
   LREAL  =      F    real-space projection
   NLSPLINE    = F    spline interpolate recip. space projectors
   LCOMPAT=      F    compatible to vasp.4.4
   GGA_COMPAT  = T    GGA compatible to vasp.4.4-vasp.4.6
   LMAXPAW     = -100 max onsite density
   LMAXMIX     =    2 max onsite mixed and CHGCAR
   VOSKOWN=      0    Vosko Wilk Nusair interpolation
   ROPT   =    0.00000   0.00000   0.00000   0.00000
 Ionic relaxation
   EDIFFG = -.3E-01   stopping-criterion for IOM
   NSW    =      0    number of steps for IOM
   NBLOCK =      1;   KBLOCK =      1    inner block; outer block
   IBRION =     -1    ionic relax: 0-MD 1-quasi-New 2-CG
   NFREE  =      1    steps in history (QN), initial steepest desc. (CG)
   ISIF   =      2    stress and relaxation
   IWAVPR =     10    prediction:  0-non 1-charg 2-wave 3-comb
   ISYM   =      3    0-nonsym 1-usesym 2-fastsym
   LCORR  =      T    Harris-Foulkes like correction to forces

   POTIM  = 0.5000    time-step for ionic-motion
   TEIN   =    0.0    initial temperature
   TEBEG  =    0.0;   TEEND  =   0.0 temperature during run
   SMASS  =  -3.00    Nose mass-parameter (am)
   estimated Nose-frequenzy (Omega)   =  0.10E-29 period in steps =****** mass=  -0.375E-26a.u.
   SCALEE = 1.0000    scale energy and forces
   NPACO  =    256;   APACO  = 16.0  distance and # of slots for P.C.
   PSTRESS=    0.0 pullay stress

  Mass of Ions in am
   POMASS =  12.01 14.00 55.85 65.39
  Ionic Valenz
   ZVAL   =   4.00  5.00  8.00 12.00
  Atomic Wigner-Seitz radii
  virtual crystal weights
   VCA    =   1.00  1.00  1.00  1.00
   NELECT =     257.0000    total number of electrons
   NUPDOWN=      -1.0000    fix difference up-down

 DOS related values:
   EMIN   =  10.00;   EMAX   =-10.00  energy-range for DOS
   EFERMI =   0.00
   ISMEAR =     0;   SIGMA  =   0.10  broadening in eV -4-tet -1-fermi 0-gaus

 Electronic relaxation 2 (details)
   IALGO  =     53    algorithm
   LDIAG  =      T    sub-space diagonalisation (order eigenvalues)
   LSUBROT=      F    optimize rotation matrix (better conditioning)
   TURBO    =      0    0=normal 1=particle mesh
   IRESTART =      0    0=no restart 2=restart with 2 vectors
   NREBOOT  =      0    no. of reboots
   NMIN     =      0    reboot dimension
   EREF     =   0.00    reference energy to select bands
   IMIX   =      4    mixing-type and parameters
     AMIX     =   0.40;   BMIX     =  1.00
     AMIX_MAG =   1.60;   BMIX_MAG =  1.00
     AMIN     =   0.10
     WC   =   100.;   INIMIX=   1;  MIXPRE=   1;  MAXMIX= -45

 Intra band minimization:
[...]
   46        0.860   1.733   0.000   2.592
   47        0.859   1.711   0.000   2.570
   48        0.849   1.746   0.000   2.595
   49        0.863   1.771   0.000   2.634
   50        0.867   1.765   0.000   2.632
   51        0.871   1.770   0.000   2.641
   52        0.866   1.783   0.000   2.649
   53        0.866   1.774   0.000   2.639
   54        1.227   2.668   0.000   3.896
   55        1.235   2.706   0.000   3.941
   56        1.241   2.665   0.000   3.906
   57        1.305   2.425   0.000   3.730
   58        1.242   2.664   0.000   3.906
   59        0.505   0.692   6.469   7.665
   60        0.630   0.254   9.813  10.698
tot         53.203 107.479  16.282 176.964

 magnetization (x)

[...]

  FORCE on cell =-STRESS in cart. coord.  units (eV):
  Direction    XX          YY          ZZ          XY          YZ          ZX
  Alpha Z   114.42716   114.42716   114.42716
  Ewald   50786.29721 51027.73262-59427.51914    47.77125    -8.07750   -59.86272
  Hartree 50629.19842 50798.19467-49299.82449    35.23880   -27.29027    32.85699
  E(xc)    -764.00265  -764.22756  -777.88458     0.15481     0.08986    -0.38514
  Local  ************************105565.62136   -80.83775    35.32549    19.88625
  n-local  -129.88350  -128.99914  -121.53654     0.89755    -0.59118     0.47693
  augment    43.88580    43.66279    45.02976    -0.53223     2.99729    -0.34889
  Kinetic  3770.88542  3770.43532  4265.36687   -14.85285     0.33843     8.10299
  Fock     -394.40198  -393.43087  -365.50010     0.67153    -3.81860     0.29602
  Total     -35.86194   -37.67470    -1.81970   -11.48889    -1.02647     1.02243
  in kB     -18.08604   -19.00026    -0.91772    -5.79412    -0.51767     0.51564

 VOLUME and BASIS-vectors are now :
  energy-cutoff  :      500.00
  volume of cell :     3176.88
      direct lattice vectors                 reciprocal lattice vectors
    12.810000000  0.000000000  0.000000000     0.078064012  0.000000000  0.000000000
     0.000000000 12.400000000  0.000000000     0.000000000  0.080645161  0.000000000
     0.000000000  0.000000000 20.000000000     0.000000000  0.000000000  0.050000000

  length of vectors
    12.810000000 12.400000000 20.000000000     0.078064012  0.080645161  0.050000000

 FORCES acting on ions:
    Electron-Ion                     Ewald-Force                    Non-Local-Force
   0.824E+01 -.111E+02 0.997E+01   -.813E+01 0.108E+02 -.998E+01   -.695E-01 0.182E+00 0.425E-02
   -.103E+01 -.343E+01 0.901E+00   0.130E+01 0.329E+01 -.887E+00   -.245E+00 0.973E-01 -.182E-01
   0.593E+01 -.345E+01 0.469E+01   -.582E+01 0.342E+01 -.477E+01   -.135E+00 0.567E-01 0.794E-01
   0.168E+02 0.150E+01 0.179E+01   -.170E+02 -.162E+01 -.180E+01   0.219E+00 0.139E+00 0.195E-02
   0.964E+01 0.744E+01 0.698E+00   -.972E+01 -.760E+01 -.710E+00   0.334E-01 0.117E+00 0.895E-02
   0.434E+01 0.779E+01 -.194E+01   -.425E+01 -.818E+01 0.200E+01   -.747E-01 0.348E+00 -.772E-01
   0.585E+01 0.869E+01 0.237E+01   -.581E+01 -.881E+01 -.246E+01   -.480E-01 0.141E+00 0.909E-01
   0.266E+02 0.254E+02 -.174E+01   -.268E+02 -.257E+02 0.166E+01   0.156E+00 0.137E+00 0.497E-01
   0.368E+02 0.561E+02 0.454E+01   -.386E+02 -.592E+02 -.451E+01   0.170E+01 0.333E+01 -.177E-02
   0.181E+02 0.849E+01 -.903E-02   -.184E+02 -.841E+01 -.156E-01   0.312E+00 -.825E-03 0.130E-01
   0.201E+02 0.180E+02 0.191E+01   -.205E+02 -.183E+02 -.196E+01   0.405E+00 0.199E+00 0.740E-01
   0.630E+02 -.268E+02 0.286E+02   -.646E+02 0.304E+02 -.287E+02   0.167E+01 -.359E+01 0.393E-01
   0.136E+02 -.910E+01 0.568E+01   -.137E+02 0.945E+01 -.581E+01   0.136E+00 -.332E+00 0.127E+00
   0.317E+02 -.483E+01 0.674E+01   -.321E+02 0.517E+01 -.662E+01   0.423E+00 -.315E+00 -.908E-01
   0.434E+02 -.373E+02 0.525E+02   -.431E+02 0.376E+02 -.527E+02   -.510E+00 -.294E+00 0.288E+00
   0.241E+02 -.296E+02 0.240E+02   -.240E+02 0.297E+02 -.239E+02   -.546E-01 -.114E+00 -.508E-01
   0.277E+01 -.106E+02 0.664E+00   -.259E+01 0.107E+02 -.625E+00   -.174E+00 -.846E-01 -.509E-01
   0.145E+02 -.106E+02 0.512E+01   -.145E+02 0.107E+02 -.506E+01   -.622E-01 -.728E-01 -.639E-01
   0.160E+02 -.189E+02 0.260E+02   -.161E+02 0.191E+02 -.263E+02   -.332E-02 -.506E-01 0.325E+00
   -.763E+00 -.150E+02 0.127E+02   0.374E+00 0.149E+02 -.129E+02   0.335E+00 0.227E-01 0.198E+00
   0.860E+01 0.503E+01 -.797E+00   -.909E+01 -.543E+01 0.715E+00   0.420E+00 0.382E+00 0.698E-01
   0.966E+01 -.131E+02 0.321E+01   -.986E+01 0.129E+02 -.304E+01   0.229E+00 0.211E+00 -.166E+00
   -.886E+01 0.645E+01 0.716E+01   0.893E+01 -.680E+01 -.720E+01   -.571E-01 0.363E+00 0.392E-01
   -.180E+01 0.252E+02 0.408E+00   0.161E+01 -.257E+02 -.502E+00   0.184E+00 0.587E+00 0.904E-01
   0.451E+02 0.584E+02 -.128E+02   -.474E+02 -.617E+02 0.125E+02   0.243E+01 0.333E+01 0.238E+00
   0.121E+02 0.281E+02 -.790E+01   -.124E+02 -.287E+02 0.792E+01   0.270E+00 0.589E+00 -.233E-01
   -.251E+02 0.442E+02 -.308E+00   0.256E+02 -.452E+02 0.305E+00   -.472E+00 0.941E+00 0.163E-01
   -.370E+02 0.749E+02 -.111E+02   0.397E+02 -.782E+02 0.111E+02   -.266E+01 0.330E+01 0.977E-01
   0.361E+02 -.885E+02 0.112E+03   -.366E+02 0.904E+02 -.111E+03   0.752E+00 -.210E+01 -.122E+01
   0.311E+01 -.712E+02 0.329E+02   -.501E+01 0.737E+02 -.338E+02   0.182E+01 -.252E+01 0.897E+00
   0.161E+02 -.310E+02 0.171E+02   -.162E+02 0.306E+02 -.171E+02   0.916E-01 0.301E+00 -.623E-02
   0.159E+02 -.486E+02 0.388E+02   -.158E+02 0.483E+02 -.389E+02   0.255E-01 0.533E+00 0.153E+00
   -.127E+02 -.328E+02 0.159E+02   0.125E+02 0.328E+02 -.160E+02   0.251E+00 -.470E-01 0.135E+00
   -.921E+01 -.696E+01 -.125E+01   0.936E+01 0.693E+01 0.128E+01   -.140E+00 0.158E-01 -.328E-01
   -.110E+02 -.120E+00 0.350E+01   0.110E+02 0.342E-01 -.350E+01   -.262E-01 0.921E-01 0.757E-02
   -.127E+02 -.417E+01 0.515E+00   0.129E+02 0.419E+01 -.536E+00   -.168E+00 -.210E-01 0.933E-02
   -.414E+01 0.294E+01 -.642E+00   0.440E+01 -.303E+01 0.609E+00   -.236E+00 0.709E-01 0.280E-01
   -.109E+02 0.291E+01 -.154E+01   0.112E+02 -.297E+01 0.155E+01   -.245E+00 0.579E-01 -.227E-01
   -.289E+02 0.183E+02 0.106E+01   0.295E+02 -.183E+02 -.103E+01   -.589E+00 0.770E-01 -.191E-01
   -.151E+02 0.122E+02 0.123E+01   0.153E+02 -.125E+02 -.127E+01   -.267E+00 0.261E+00 0.346E-01
   -.545E+01 0.627E+01 -.218E+01   0.558E+01 -.630E+01 0.216E+01   -.121E+00 0.249E-02 0.899E-02
   -.149E+02 0.791E+01 -.128E+01   0.152E+02 -.777E+01 0.125E+01   -.297E+00 -.101E+00 0.293E-01
   -.784E+02 -.391E+00 -.183E+00   0.819E+02 0.847E+00 -.332E+00   -.348E+01 -.511E+00 0.515E+00
   -.340E+02 0.109E+02 0.402E+01   0.344E+02 -.107E+02 -.413E+01   -.398E+00 -.198E+00 0.160E+00
   -.417E+01 0.214E+00 -.450E+01   0.401E+01 -.338E-01 0.454E+01   0.144E+00 -.206E+00 -.419E-01
   -.130E+02 -.110E+01 -.686E+01   0.128E+02 0.122E+01 0.680E+01   0.172E+00 -.752E-01 0.616E-01
   -.807E+02 -.637E+01 -.328E+01   0.836E+02 0.630E+01 0.294E+01   -.304E+01 0.178E+00 0.341E+00
   -.414E+02 -.653E+00 -.142E+02   0.413E+02 0.902E+00 0.141E+02   0.168E+00 -.287E+00 0.831E-01
   -.391E+01 0.404E+00 -.172E+01   0.394E+01 -.450E+00 0.178E+01   -.332E-01 0.664E-01 -.600E-01
   -.142E+02 -.995E+01 0.273E+01   0.145E+02 0.981E+01 -.279E+01   -.235E+00 0.987E-01 0.642E-01
   -.215E+02 -.215E+02 0.254E+01   0.215E+02 0.216E+02 -.237E+01   -.126E+00 -.380E-01 -.163E+00
   -.308E+02 -.112E+02 0.790E+01   0.311E+02 0.111E+02 -.799E+01   -.303E+00 0.153E+00 0.121E+00
   -.324E+01 -.274E+01 0.331E+00   0.340E+01 0.269E+01 -.362E+00   -.154E+00 0.492E-01 0.283E-01
   0.491E+02 0.432E+02 0.210E+02   -.321E+02 -.427E+02 -.215E+02   -.165E+02 -.627E+00 0.376E+00
   0.502E+02 0.645E+02 -.432E+02   -.598E+02 -.485E+02 0.451E+02   0.916E+01 -.154E+02 -.187E+01
   -.622E+02 -.663E+01 -.110E+02   0.491E+02 0.289E+02 0.128E+02   0.123E+02 -.210E+02 -.181E+01
   -.636E+02 -.237E+02 0.628E+03   0.755E+02 0.163E+02 -.654E+03   -.114E+02 0.772E+01 0.251E+02
   -.424E+02 -.125E+02 -.111E+01   0.288E+02 -.984E+01 0.212E+01   0.128E+02 0.210E+02 -.113E+01
   0.200E+02 0.915E+02 0.211E+03   -.245E+02 -.946E+02 -.210E+03   0.504E+01 0.202E+01 -.633E+00
   0.494E+02 -.639E+02 -.119E+04   -.558E+02 0.626E+02 0.119E+04   0.610E+01 0.136E+01 -.102E+00
   -.165E+02 -.788E+00 -.240E+02   0.540E-12 0.327E-12 0.000E+00   0.155E+02 0.533E+00 0.223E+02

 POSITION                                       TOTAL-FORCE (eV/Angst)
      2.85213      0.00242      9.96809         0.033274     -0.132737     -0.002994
      0.73541      1.24750     10.03213         0.003609     -0.040048     -0.006954
      1.42446      0.00116     10.00038        -0.026935      0.035206      0.004197
      3.56421      1.25594     10.01560         0.036275      0.026298     -0.005689
      2.88093      2.52224     10.03177        -0.048594     -0.042598     -0.003655
      0.72930      3.73273     10.04907         0.012840     -0.024533     -0.023900
      1.44811      2.49992     10.03273        -0.003362      0.028679      0.010096
      3.60511      3.78012     10.04261         0.011547     -0.077604     -0.032815
      2.86201      5.03273      9.98684         0.070388      0.418856      0.023678
      0.67442      6.21002     10.02739         0.044879      0.073643     -0.012520
      1.42533      4.98775     10.01989         0.023170     -0.085240      0.024652
      2.78359      7.45460      9.85564         0.178550     -0.165358      0.022834
      0.65982      8.68403      9.99309         0.023333     -0.003831      0.009569
      1.37052      7.45001      9.96557        -0.034856      0.009905      0.020948
      3.49203      8.68584      9.73813        -0.280180     -0.029284      0.134255
      2.81002      9.91790      9.86462         0.099303     -0.125729      0.008091
      0.69797     11.16391     10.00902        -0.011839      0.010476     -0.015850
      1.38541      9.91901      9.96397        -0.005466     -0.014131     -0.012247
      3.54633     11.15978      9.89366        -0.061046      0.143306      0.028109
      7.11192     12.38152     10.01318        -0.032802     -0.024533      0.018754
      4.98238      1.22639     10.03606        -0.047938      0.003518     -0.009538
      5.68906     12.38313     10.00254         0.040183      0.002439     -0.013313
      7.84091      1.20137     10.04840         0.010245      0.036225      0.005727
      7.13390      2.42038     10.08540         0.010786      0.061974      0.001398
      5.04586      3.71540     10.10587         0.245615      0.229654     -0.029463
      5.71025      2.45255     10.08717        -0.008849     -0.011739     -0.005698
      7.87362      3.62235     10.12754         0.027591      0.026459      0.015160
      7.18284      4.83279     10.19989        -0.183605      0.176340      0.063817
      4.94722      8.68908      9.48234         0.281175     -0.355248     -0.721763
      7.12663      9.92047     10.02556         0.021888     -0.191869      0.050320
      4.98382     11.13773      9.91963         0.037398     -0.111209     -0.020838
      5.70318      9.90784      9.85471         0.159807      0.323577      0.035474
      7.82585     11.16074     10.02613         0.020012      0.003329      0.053027
     11.39469     12.39532     10.05842        -0.000057     -0.020000     -0.010209
      9.26491      1.21528     10.06254        -0.015698      0.005462      0.006079
      9.97173     12.38664     10.06433         0.000176      0.000399     -0.011760
     12.12033      1.23435     10.05497         0.012460     -0.002647     -0.003541
     11.41285      2.46813     10.07322        -0.006843      0.000440     -0.006879
      9.28325      3.66777     10.11175        -0.046810      0.000304      0.010614
      9.99210      2.44547     10.08095        -0.011589      0.034610     -0.002687
     12.10902      3.71947     10.07464         0.006217     -0.024974     -0.020069
     11.37555      4.94976     10.09637         0.031014      0.042791     -0.002767
      9.17769      6.13417     10.20414        -0.186579     -0.091074      0.026191
      9.95299      4.92742     10.12588        -0.023115      0.007311      0.056995
     12.05649      6.20109     10.08668        -0.009284     -0.043138     -0.003153
     11.30719      7.42871     10.11845        -0.011354      0.037622      0.004190
      9.16925      8.69724     10.18593        -0.321320      0.124789      0.015630
      9.86224      7.41709     10.19739         0.097913     -0.051006     -0.017106
     12.04249      8.66651     10.06378        -0.006978      0.031762     -0.002830
     11.35623      9.91238     10.06312        -0.011907     -0.038446      0.002464
      9.24667     11.15690     10.06849        -0.060198      0.003587     -0.012182
      9.93480      9.91311     10.08851         0.000329     -0.008881      0.040213
     12.08470     11.15248     10.04430         0.005802      0.007165     -0.002264
      3.49904      6.26126      9.89831        -0.962614     -0.214375     -0.112627
      5.80963      4.86027     10.16526         0.349490     -0.813428     -0.029367
      7.80529      6.03777     10.29894         0.213397     -0.547749     -0.120900
      5.45291      7.83232      8.53564        -0.473314      1.000222      0.921533
      7.80754      8.74914     10.24945         0.382311      0.471518     -0.187072
      5.31812      6.59408      9.71798         0.194301     -0.253305      0.068916
      6.68270      7.47999     11.53832         0.207856      0.166843     -0.220280
    total drift:                               -0.017635      0.020785      0.037412

  FREE ENERGIE OF THE ION-ELECTRON SYSTEM (eV)
  free  energy   TOTEN  =      -619.18526855 eV

  energy  without entropy=     -619.18526855  energy(sigma->0) =     -619.18526855

 stress matrix after NEB project (eV)
    -35.86194    -11.48813      1.02243
    -11.48889    -37.67470     -1.02566
      1.02366     -1.02647     -1.81970
  FORCES: max atom, RMS     1.440033    0.331432
  FORCE total and by dimension    2.567264    1.000222
  Stress total and by dimension   54.561375   37.674705
 writing wavefunctions

 total charge

[...]

 magnetization (x)

# of ion       s       p       d       tot
    1        0.000   0.004   0.000   0.004
    2        0.000   0.004   0.000   0.004
    3       -0.001  -0.008   0.000  -0.008
    4       -0.000  -0.004   0.000  -0.004
    5        0.000   0.004   0.000   0.004
    6        0.000   0.003   0.000   0.004
    7       -0.001  -0.009   0.000  -0.009
    8       -0.001  -0.007   0.000  -0.008
    9        0.001   0.007   0.000   0.008
   10        0.000   0.004   0.000   0.005
   11       -0.000  -0.008   0.000  -0.008
   12        0.000   0.002   0.000   0.002
   13        0.000   0.002   0.000   0.002
   14       -0.000  -0.002   0.000  -0.002
   15        0.004   0.002   0.000   0.006
   16        0.001   0.006   0.000   0.007
   17        0.000   0.004   0.000   0.004
   18       -0.000  -0.004   0.000  -0.004
   19       -0.001  -0.011   0.000  -0.012
   20        0.000   0.005   0.000   0.005
   21        0.000   0.003   0.000   0.004
   22       -0.000  -0.004   0.000  -0.004
   23       -0.000  -0.003   0.000  -0.004
   24        0.000   0.000   0.000   0.000
   25       -0.000   0.001   0.000   0.001
   26       -0.000  -0.003   0.000  -0.004
   27        0.000  -0.001   0.000  -0.001
   28        0.000  -0.008   0.000  -0.007
   29       -0.005  -0.023   0.000  -0.028
   30        0.000   0.004   0.000   0.005
   31        0.001   0.007   0.000   0.008
   32        0.003   0.001   0.000   0.003
   33       -0.000  -0.004   0.000  -0.004
   34        0.000   0.002   0.000   0.002
   35        0.000   0.000   0.000   0.001
   36       -0.000  -0.003   0.000  -0.003
   37       -0.000  -0.005   0.000  -0.005
   38        0.000   0.002   0.000   0.003
   39        0.000  -0.000   0.000   0.000
   40       -0.000  -0.002   0.000  -0.002
   41       -0.000  -0.005   0.000  -0.005
   42        0.000   0.003   0.000   0.003
   43        0.000   0.002   0.000   0.002
   44       -0.000  -0.004   0.000  -0.004
   45       -0.000  -0.003   0.000  -0.004
   46        0.000   0.003   0.000   0.003
   47        0.000   0.000   0.000   0.001
   48       -0.000  -0.002   0.000  -0.003
   49       -0.000  -0.007   0.000  -0.007
   50        0.000   0.003   0.000   0.003
   51        0.000   0.001   0.000   0.002
   52       -0.000  -0.006   0.000  -0.007
   53       -0.000  -0.004   0.000  -0.004
   54        0.002  -0.005   0.000  -0.004
   55        0.000  -0.000   0.000   0.000
   56       -0.001   0.003   0.000   0.002
   57        0.011   0.369   0.000   0.380
   58       -0.005  -0.020   0.000  -0.024
   59       -0.007  -0.006  -0.841  -0.854
   60       -0.158  -0.025   0.009  -0.174
tot         -0.154   0.258  -0.832  -0.729