 vasp.5.4.4.18Apr17-6-g9f103f2a35 (build Feb 25 2019 10:51:38) complex

 executed on             LinuxIFC date 2022.01.27  16:35:38

 INCAR:
 POTCAR:    PAW_PBE C 08Apr2002
 POTCAR:    PAW_PBE N 08Apr2002
 POTCAR:    PAW_PBE Fe 06Sep2000
 POTCAR:    PAW_PBE Zn 06Sep2000

 POTCAR:    PAW_PBE C 08Apr2002
   VRHFIN =C: s2p2

   TITEL  = PAW_PBE C 08Apr2002
   POMASS =   12.011; ZVAL   =    4.000    mass and valenz
   ENMAX  =  400.000; ENMIN  =  300.000 eV

 POTCAR:    PAW_PBE N 08Apr2002
   VRHFIN =N: s2p3

   TITEL  = PAW_PBE N 08Apr2002
   POMASS =   14.001; ZVAL   =    5.000    mass and valenz
   ENMAX  =  400.000; ENMIN  =  300.000 eV

 POTCAR:    PAW_PBE Fe 06Sep2000
   VRHFIN =Fe:  d7 s1

   TITEL  = PAW_PBE Fe 06Sep2000
   POMASS =   55.847; ZVAL   =    8.000    mass and valenz
   ENMAX  =  267.882; ENMIN  =  200.911 eV

 POTCAR:    PAW_PBE Zn 06Sep2000
   VRHFIN =Zn: d10 p2

   TITEL  = PAW_PBE Zn 06Sep2000
   POMASS =   65.390; ZVAL   =   12.000    mass and valenz
   ENMAX  =  276.723; ENMIN  =  207.542 eV

  PAW_PBE C 08Apr2002                   :
  PAW_PBE N 08Apr2002                   :
  PAW_PBE Fe 06Sep2000                  :
  PAW_PBE Zn 06Sep2000                  :

 POSCAR:  C  N Fe Zn
  positions in cartesian coordinates
 exchange correlation table for  LEXCH =        8
   RHO(1)=    0.500       N(1)  =     2000
   RHO(2)=  100.500       N(2)  =     4000

 VTST: version 3.2, (02/03/18)

 CHAIN: initializing optimizer

 OPT: Using VASP Conjugate-Gradient optimizer
 CHAIN: Read ICHAIN            0

 POSCAR:  C  N Fe Zn
  positions in cartesian coordinates

 ion  position               nearest neighbor table
   1  0.222  0.003  0.503-   3 1.42  19 1.43   4 1.44
   2  0.057  0.103  0.503-   3 1.43  36 1.43   7 1.44
   3  0.111  0.002  0.502-   1 1.42   2 1.43  17 1.44
   4  0.278  0.104  0.503-  21 1.42   5 1.44   1 1.44
   5  0.225  0.207  0.503-   7 1.44   4 1.44   8 1.46
   6  0.057  0.303  0.502-   7 1.43  40 1.43  11 1.44
   7  0.113  0.204  0.502-   6 1.43   5 1.44   2 1.44
   8  0.282  0.308  0.503-  25 1.44   5 1.46   9 1.46
   9  0.225  0.410  0.501-  53 1.37  11 1.45   8 1.46
  10  0.054  0.503  0.502-  14 1.43  11 1.43  44 1.44
  11  0.112  0.405  0.502-  10 1.43   6 1.44   9 1.45
  12  0.221  0.602  0.501-  53 1.36  14 1.43  15 1.46
  13  0.052  0.702  0.502-  14 1.43  18 1.43  48 1.44
  14  0.109  0.603  0.502-  13 1.43  10 1.43  12 1.43
  15  0.278  0.703  0.501-  56 1.39  16 1.43  12 1.46
  16  0.221  0.802  0.502-  15 1.43  18 1.43  19 1.44
  17  0.054  0.902  0.502-  18 1.43  52 1.43   3 1.44
  18  0.109  0.801  0.502-  17 1.43  13 1.43  16 1.43
  19  0.276  0.903  0.503-  30 1.43   1 1.43  16 1.44
  20  0.554  0.999  0.506-  23 1.42  32 1.42  22 1.42
  21  0.389  0.102  0.505-   4 1.42  26 1.43  22 1.43
  22  0.443  0.001  0.505-  20 1.42  30 1.43  21 1.43
  23  0.612  0.097  0.507-  24 1.41  20 1.42  34 1.43
  24  0.557  0.196  0.508-  27 1.41  23 1.41  26 1.42
  25  0.395  0.304  0.505-  54 1.38  26 1.44   8 1.44
  26  0.446  0.201  0.506-  24 1.42  21 1.43  25 1.44
  27  0.615  0.293  0.509-  28 1.39  38 1.41  24 1.41
  28  0.561  0.390  0.508-  54 1.36  55 1.36  27 1.39  58 2.52
  29  0.554  0.799  0.503-  57 1.36  32 1.43  31 1.46
  30  0.387  0.901  0.504-  19 1.43  31 1.43  22 1.43
  31  0.441  0.800  0.503-  56 1.38  30 1.43  29 1.46
  32  0.609  0.899  0.504-  20 1.42  50 1.43  29 1.43
  33  0.889  0.000  0.504-  52 1.42  35 1.43  36 1.44
  34  0.723  0.099  0.506-  35 1.42  23 1.43  39 1.43
  35  0.778  0.999  0.505-  34 1.42  33 1.43  50 1.44
  36  0.946  0.101  0.503-  37 1.42   2 1.43  33 1.44
  37  0.891  0.200  0.504-  36 1.42  39 1.42  40 1.44
  38  0.725  0.297  0.507-  27 1.41  39 1.41  43 1.42
  39  0.780  0.198  0.506-  38 1.41  37 1.42  34 1.43
  40  0.945  0.302  0.504-   6 1.43  41 1.43  37 1.44
  41  0.888  0.401  0.504-  44 1.43  43 1.43  40 1.43
  42  0.715  0.496  0.505-  55 1.37  43 1.44  47 1.45
  43  0.777  0.398  0.506-  38 1.42  41 1.43  42 1.44
  44  0.941  0.502  0.503-  41 1.43  45 1.44  10 1.44
  45  0.882  0.600  0.503-  44 1.44  48 1.44  47 1.45
  46  0.712  0.701  0.502-  57 1.37  51 1.45  47 1.46
  47  0.769  0.599  0.503-  42 1.45  45 1.45  46 1.46
  48  0.940  0.700  0.502-  49 1.42  13 1.44  45 1.44
  49  0.885  0.800  0.503-  48 1.42  51 1.44  52 1.44
  50  0.720  0.900  0.504-  51 1.42  32 1.43  35 1.44
  51  0.773  0.799  0.503-  50 1.42  49 1.44  46 1.45
  52  0.943  0.900  0.503-  33 1.42  17 1.43  49 1.44
  53  0.276  0.508  0.500-  12 1.36   9 1.37
  54  0.455  0.396  0.505-  28 1.36  25 1.38  58 2.10
  55  0.608  0.488  0.506-  28 1.36  42 1.37  58 2.10
  56  0.386  0.703  0.501-  31 1.38  15 1.39  58 1.98
  57  0.605  0.703  0.501-  29 1.36  46 1.37
  58  0.463  0.565  0.496-  56 1.98  55 2.10  54 2.10  28 2.52  59 2.72
  59  0.477  0.567  0.360-  58 2.72

  LATTYP: Found a simple orthorhombic cell.
 ALAT       =    12.4000000000
 B/A-ratio  =     1.0330645161
 C/A-ratio  =     1.6129032258

  Lattice vectors:

 A1 = (   0.0000000000, -12.4000000000,   0.0000000000)
 A2 = ( -12.8100000000,   0.0000000000,   0.0000000000)
 A3 = (   0.0000000000,   0.0000000000, -20.0000000000)

Analysis of symmetry for initial positions (statically):
 Subroutine PRICEL returns:
 Original cell was already a primitive cell.

 Routine SETGRP: Setting up the symmetry group for a
 simple orthorhombic supercell.

 Subroutine GETGRP returns: Found  1 space group operations
 (whereof  1 operations were pure point group operations)
 out of a pool of  8 trial point group operations.

The static configuration has the point symmetry C_1 .

Analysis of symmetry for dynamics (positions and initial velocities):
 Subroutine PRICEL returns:
 Original cell was already a primitive cell.

[...]

The dynamic configuration has the point symmetry C_1 .

Analysis of structural, dynamic, and magnetic symmetry:
 Subroutine PRICEL returns:
 Original cell was already a primitive cell.

 Routine SETGRP: Setting up the symmetry group for a
 simple orthorhombic supercell.

 Subroutine GETGRP returns: Found  1 space group operations
 (whereof  1 operations were pure point group operations)
 out of a pool of  8 trial point group operations.

The magnetic configuration has the point symmetry C_1 .

 Subroutine INISYM returns: Found  1 space group operations
 (whereof  1 operations are pure point group operations),
 and found     1 'primitive' translations

 KPOINTS: KPOINTS created by Atomic Simulation Env

Automatic generation of k-mesh.
Space group operators:
 irot       det(A)        alpha          n_x          n_y          n_z        tau_x        tau_y        tau_z
    1     1.000000     0.000000     1.000000     0.000000     0.000000     0.000000     0.000000     0.000000

 Subroutine IBZKPT returns following result:

 Found      2 irreducible k-points:

 Following reciprocal coordinates:
            Coordinates               Weight
  0.250000  0.250000  0.000000      2.000000
 -0.250000  0.250000  0.000000      2.000000

 Following cartesian coordinates:
            Coordinates               Weight
  0.019516  0.020161  0.000000      2.000000
 -0.019516  0.020161  0.000000      2.000000

 Subroutine IBZKPT_HF returns following result:

 Found      4 k-points in 1st BZ
 the following      4 k-points will be used (e.g. in the exchange kernel)
 Following reciprocal coordinates:   # in IRBZ
  0.250000  0.250000  0.000000    0.25000000   1 t-inv F
 -0.250000  0.250000  0.000000    0.25000000   2 t-inv F
 -0.250000 -0.250000  0.000000    0.25000000   1 t-inv T
  0.250000 -0.250000  0.000000    0.25000000   2 t-inv T

 SYSTEM =  unknown system
 POSCAR =   C  N Fe Zn

 Startparameter for this run:
   NWRITE =      2    write-flag & timer
   PREC   = accura    normal or accurate (medium, high low for compatibility)
   ISTART =      1    job   : 0-new  1-cont  2-samecut
   ICHARG =      0    charge: 1-file 2-atom 10-const
   ISPIN  =      2    spin polarized calculation?
   LNONCOLLINEAR =      F non collinear calculations
   LSORBIT =      F    spin-orbit coupling
   INIWAV =      1    electr: 0-lowe 1-rand  2-diag
   LASPH  =      T    aspherical Exc in radial PAW
   METAGGA=      F    non-selfconsistent MetaGGA calc.

 Electronic Relaxation 1
   ENCUT  =  500.0 eV  36.75 Ry    6.06 a.u.  23.36 22.61 36.46*2*pi/ulx,y,z
   ENINI  =  500.0     initial cutoff
   ENAUG  =  644.9 eV  augmentation charge cutoff
   NELM   =    250;   NELMIN=  2; NELMDL=  0     # of ELM steps
   EDIFF  = 0.1E-03   stopping-criterion for ELM
   LREAL  =      F    real-space projection
   NLSPLINE    = F    spline interpolate recip. space projectors
   LCOMPAT=      F    compatible to vasp.4.4
   GGA_COMPAT  = T    GGA compatible to vasp.4.4-vasp.4.6
   LMAXPAW     = -100 max onsite density
   LMAXMIX     =    2 max onsite mixed and CHGCAR
   VOSKOWN=      0    Vosko Wilk Nusair interpolation
   ROPT   =    0.00000   0.00000   0.00000   0.00000
 Ionic relaxation
   EDIFFG = -.3E-01   stopping-criterion for IOM
   NSW    =      0    number of steps for IOM
   NBLOCK =      1;   KBLOCK =      1    inner block; outer block
   IBRION =     -1    ionic relax: 0-MD 1-quasi-New 2-CG
   NFREE  =      1    steps in history (QN), initial steepest desc. (CG)
   ISIF   =      2    stress and relaxation
   IWAVPR =     10    prediction:  0-non 1-charg 2-wave 3-comb
   ISYM   =      3    0-nonsym 1-usesym 2-fastsym
   LCORR  =      T    Harris-Foulkes like correction to forces

   POTIM  = 0.5000    time-step for ionic-motion
   TEIN   =    0.0    initial temperature
   TEBEG  =    0.0;   TEEND  =   0.0 temperature during run
   SMASS  =  -3.00    Nose mass-parameter (am)
   estimated Nose-frequenzy (Omega)   =  0.10E-29 period in steps =****** mass=  -0.375E-26a.u.
   SCALEE = 1.0000    scale energy and forces
   NPACO  =    256;   APACO  = 16.0  distance and # of slots for P.C.
   PSTRESS=    0.0 pullay stress

  Mass of Ions in am
   POMASS =  12.01 14.00 55.85 65.39
  Ionic Valenz
   ZVAL   =   4.00  5.00  8.00 12.00
  Atomic Wigner-Seitz radii
  virtual crystal weights
   VCA    =   1.00  1.00  1.00  1.00
   NELECT =     253.0000    total number of electrons
   NUPDOWN=      -1.0000    fix difference up-down

 DOS related values:
   EMIN   =  10.00;   EMAX   =-10.00  energy-range for DOS
   EFERMI =   0.00
   ISMEAR =     0;   SIGMA  =   0.10  broadening in eV -4-tet -1-fermi 0-gaus

 Electronic relaxation 2 (details)
   IALGO  =     53    algorithm
   LDIAG  =      T    sub-space diagonalisation (order eigenvalues)
   LSUBROT=      F    optimize rotation matrix (better conditioning)
   TURBO    =      0    0=normal 1=particle mesh
   IRESTART =      0    0=no restart 2=restart with 2 vectors
   NREBOOT  =      0    no. of reboots
   NMIN     =      0    reboot dimension
   EREF     =   0.00    reference energy to select bands
   IMIX   =      4    mixing-type and parameters
     AMIX     =   0.40;   BMIX     =  1.00
     AMIX_MAG =   1.60;   BMIX_MAG =  1.00
     AMIN     =   0.10
     WC   =   100.;   INIMIX=   1;  MIXPRE=   1;  MAXMIX= -45

 Intra band minimization:
   WEIMIN = 0.0000     energy-eigenvalue tresh-hold
   EBREAK =  0.16E-06  absolut break condition
[...]
   39        0.868   1.787   0.000   2.656
   40        0.862   1.762   0.000   2.624
   41        0.867   1.762   0.000   2.628
   42        0.855   1.706   0.000   2.562
   43        0.864   1.775   0.000   2.639
   44        0.861   1.765   0.000   2.626
   45        0.858   1.731   0.000   2.589
   46        0.854   1.700   0.000   2.554
   47        0.849   1.748   0.000   2.597
   48        0.862   1.760   0.000   2.622
   49        0.864   1.757   0.000   2.621
   50        0.869   1.763   0.000   2.632
   51        0.864   1.761   0.000   2.626
   52        0.864   1.764   0.000   2.628
   53        1.245   2.629   0.000   3.874
   54        1.241   2.684   0.000   3.925
   55        1.241   2.683   0.000   3.923
   56        1.228   2.662   0.000   3.890
   57        1.246   2.633   0.000   3.878
   58        0.331   0.376   5.991   6.698
   59        0.851   0.021   9.766  10.639
tot         52.284 105.178  15.757 173.220

 magnetization (x)

[...]

  FORCE on cell =-STRESS in cart. coord.  units (eV):
  Direction    XX          YY          ZZ          XY          YZ          ZX
  Alpha Z   111.01069   111.01069   111.01069
  Ewald   48227.75210 48248.12955-56632.91645    -4.07678    -4.19329    -5.18004
  Hartree 48101.75885 48135.16110-46730.39795   -19.90104    -9.92797     3.33951
  E(xc)    -752.11986  -752.57177  -766.75360     0.67416    -0.02944     0.03852
  Local  -98953.59828-99019.50739100250.43435    36.63356    14.60103     1.63569
  n-local  -118.78137  -119.49287  -111.77070     2.51826     0.22155    -0.21228
  augment    44.65715    46.67225    47.37363    -3.56969     0.30897    -0.35398
  Kinetic  3686.36180  3701.90851  4201.79733   -33.52485    -0.70828     0.43203
  Fock     -395.49026  -396.43505  -368.99616     1.86204    -0.30670     0.35850
  Total     -48.44916   -45.12498    -0.21886   -19.38435    -0.03413     0.05796
  in kB     -24.43408   -22.75762    -0.11038    -9.77600    -0.01721     0.02923

 VOLUME and BASIS-vectors are now :
  energy-cutoff  :      500.00
  volume of cell :     3176.88
      direct lattice vectors                 reciprocal lattice vectors
    12.810000000  0.000000000  0.000000000     0.078064012  0.000000000  0.000000000
     0.000000000 12.400000000  0.000000000     0.000000000  0.080645161  0.000000000
     0.000000000  0.000000000 20.000000000     0.000000000  0.000000000  0.050000000

  length of vectors
    12.810000000 12.400000000 20.000000000     0.078064012  0.080645161  0.050000000

 FORCES acting on ions:
    Electron-Ion                     Ewald-Force                    Non-Local-Force
   0.527E+01 -.877E+01 -.712E+01   -.547E+01 0.901E+01 0.713E+01   0.175E+00 -.288E+00 -.695E-02
   -.188E+01 -.427E+01 -.290E+01   0.206E+01 0.428E+01 0.291E+01   -.175E+00 0.529E-02 -.874E-02
   0.666E+01 -.418E+00 -.367E+01   -.665E+01 0.365E+00 0.367E+01   -.280E-02 0.132E-01 0.479E-02
   0.144E+02 0.109E+00 -.918E+01   -.146E+02 -.239E-01 0.918E+01   0.211E+00 -.556E-01 0.117E-01
   0.654E+01 0.743E+00 -.697E+01   -.636E+01 -.472E+00 0.700E+01   -.130E+00 -.274E+00 -.198E-01
   0.680E+00 0.310E+01 -.516E+01   -.663E+00 -.335E+01 0.518E+01   -.733E-02 0.217E+00 -.113E-01
   0.281E+01 0.638E+01 -.325E+01   -.275E+01 -.643E+01 0.325E+01   -.755E-01 0.325E-01 0.776E-02
   0.193E+02 0.101E+02 -.134E+02   -.193E+02 -.982E+01 0.134E+02   0.123E+00 -.347E+00 0.176E-01
   0.199E+02 0.421E+02 -.126E+02   -.210E+02 -.445E+02 0.127E+02   0.117E+01 0.254E+01 -.741E-01
   0.142E+02 0.369E+01 -.719E+01   -.144E+02 -.365E+01 0.718E+01   0.258E+00 -.707E-01 0.101E-01
   0.961E+01 0.144E+02 -.733E+01   -.954E+01 -.146E+02 0.738E+01   -.113E+00 0.260E+00 -.286E-01
   0.331E+02 -.283E+02 -.186E+02   -.348E+02 0.303E+02 0.187E+02   0.160E+01 -.201E+01 -.685E-01
   0.109E+02 -.544E+01 -.795E+01   -.111E+02 0.556E+01 0.798E+01   0.211E+00 -.973E-01 -.252E-01
   0.174E+02 -.484E+01 -.102E+02   -.174E+02 0.527E+01 0.102E+02   0.957E-01 -.392E+00 -.299E-01
   0.490E+02 -.582E+01 -.248E+02   -.524E+02 0.562E+01 0.248E+02   0.355E+01 0.203E+00 -.614E-01
   0.221E+02 -.148E+02 -.135E+02   -.226E+02 0.148E+02 0.135E+02   0.425E+00 -.111E+00 -.416E-02
   0.321E+01 -.716E+01 -.489E+01   -.315E+01 0.723E+01 0.491E+01   -.463E-01 -.400E-01 -.138E-01
   0.929E+01 -.503E+01 -.789E+01   -.968E+01 0.490E+01 0.790E+01   0.350E+00 0.945E-01 -.486E-02
   0.149E+02 -.144E+02 -.123E+02   -.152E+02 0.148E+02 0.123E+02   0.239E+00 -.331E+00 -.198E-01
   -.169E+01 -.400E+01 -.209E+02   0.144E+01 0.410E+01 0.209E+02   0.222E+00 -.410E-01 -.125E-01
   0.731E+01 0.416E+01 -.172E+02   -.763E+01 -.430E+01 0.172E+02   0.270E+00 0.162E+00 0.882E-02
   0.717E+01 -.653E+01 -.190E+02   -.706E+01 0.669E+01 0.191E+02   -.856E-01 -.193E+00 -.396E-01
   -.783E+01 0.894E+01 -.240E+02   0.789E+01 -.933E+01 0.240E+02   -.765E-01 0.347E+00 -.160E-01
   0.971E+00 0.222E+02 -.327E+02   -.121E+01 -.226E+02 0.327E+02   0.260E+00 0.448E+00 0.155E-02
   0.440E+02 0.353E+02 -.298E+02   -.463E+02 -.380E+02 0.297E+02   0.234E+01 0.266E+01 0.544E-01
   0.156E+02 0.182E+02 -.274E+02   -.160E+02 -.184E+02 0.275E+02   0.427E+00 0.158E+00 -.309E-01
   -.202E+02 0.335E+02 -.454E+02   0.208E+02 -.344E+02 0.455E+02   -.607E+00 0.886E+00 -.152E+00
   -.269E+02 0.482E+02 -.640E+02   0.291E+02 -.518E+02 0.642E+02   -.215E+01 0.358E+01 -.254E+00
   0.951E+01 -.413E+02 -.280E+02   -.103E+02 0.437E+02 0.281E+02   0.962E+00 -.224E+01 -.106E+00
   0.479E+01 -.216E+02 -.189E+02   -.467E+01 0.221E+02 0.189E+02   -.553E-01 -.407E+00 -.125E-03
   -.137E+02 -.431E+02 -.312E+02   0.155E+02 0.459E+02 0.313E+02   -.196E+01 -.292E+01 -.142E+00
   -.746E+01 -.155E+02 -.202E+02   0.712E+01 0.156E+02 0.203E+02   0.255E+00 -.147E+00 -.388E-01
   -.703E+01 -.441E+01 -.690E+01   0.712E+01 0.436E+01 0.692E+01   -.949E-01 0.172E-01 -.153E-01
   -.862E+01 0.196E+01 -.190E+02   0.873E+01 -.199E+01 0.190E+02   -.790E-01 0.305E-01 -.315E-01
   -.918E+01 0.307E+01 -.120E+02   0.938E+01 -.293E+01 0.120E+02   -.192E+00 -.885E-01 -.682E-02
   -.350E+01 0.536E+01 -.515E+01   0.366E+01 -.542E+01 0.515E+01   -.156E+00 0.668E-01 0.777E-02
   -.106E+02 0.971E+00 -.961E+01   0.108E+02 -.935E+00 0.962E+01   -.190E+00 -.265E-01 0.636E-02
   -.251E+02 0.114E+02 -.306E+02   0.256E+02 -.114E+02 0.305E+02   -.567E+00 0.177E-01 -.732E-02
   -.131E+02 0.122E+02 -.188E+02   0.133E+02 -.123E+02 0.188E+02   -.219E+00 0.181E+00 0.876E-03
   -.567E+01 0.397E+01 -.880E+01   0.579E+01 -.393E+01 0.883E+01   -.112E+00 -.505E-01 -.229E-01
   -.121E+02 0.300E+01 -.129E+02   0.123E+02 -.282E+01 0.129E+02   -.257E+00 -.152E+00 0.510E-02
   -.552E+02 -.169E+02 -.332E+02   0.587E+02 0.176E+02 0.332E+02   -.345E+01 -.644E+00 0.527E-01
   -.271E+02 0.984E+00 -.259E+02   0.274E+02 -.788E+00 0.259E+02   -.324E+00 -.213E+00 -.189E-01
   -.508E+01 -.248E+01 -.874E+01   0.483E+01 0.270E+01 0.874E+01   0.196E+00 -.217E+00 -.101E-03
   -.409E+01 -.364E+01 -.988E+01   0.382E+01 0.366E+01 0.992E+01   0.314E+00 -.169E-01 -.351E-01
   -.481E+02 0.217E+01 -.190E+02   0.507E+02 -.256E+01 0.191E+02   -.278E+01 0.377E+00 -.827E-01
   -.203E+02 -.631E+01 -.178E+02   0.201E+02 0.648E+01 0.178E+02   0.185E+00 -.268E+00 0.759E-02
   -.244E+01 0.168E+01 -.684E+01   0.250E+01 -.186E+01 0.683E+01   -.376E-01 0.124E+00 0.107E-01
   -.577E+01 -.654E+01 -.800E+01   0.606E+01 0.639E+01 0.804E+01   -.274E+00 0.152E+00 -.422E-01
   -.141E+02 -.128E+02 -.137E+02   0.142E+02 0.128E+02 0.137E+02   -.122E+00 -.115E+00 0.119E-02
   -.204E+02 -.212E+00 -.119E+02   0.206E+02 -.714E-01 0.119E+02   -.232E+00 0.334E+00 -.144E-01
   -.194E+01 0.158E+01 -.550E+01   0.196E+01 -.165E+01 0.550E+01   -.443E-01 0.642E-01 0.460E-05
   -.499E+02 0.200E+02 -.256E+02   0.782E+02 -.199E+02 0.251E+02   -.266E+02 -.167E+00 0.453E+00
   0.829E+02 -.117E+02 -.697E+02   -.951E+02 0.329E+02 0.692E+02   0.116E+02 -.200E+02 0.417E+00
   -.295E+02 -.712E+02 -.772E+02   0.171E+02 0.925E+02 0.769E+02   0.118E+02 -.201E+02 0.256E+00
   -.130E+01 0.131E+02 -.537E+02   0.112E+02 -.304E+02 0.538E+02   -.966E+01 0.170E+02 0.400E-01
   0.781E+01 0.547E+02 -.359E+02   -.219E+02 -.794E+02 0.352E+02   0.133E+02 0.233E+02 0.681E+00
   0.267E+02 -.212E+02 -.962E+02   -.269E+02 0.216E+02 0.960E+02   0.360E+00 -.944E+00 0.395E+00
   -.688E+01 0.907E+00 0.120E+04   0.621E+01 -.908E+00 -.120E+04   0.604E+00 0.183E-02 -.301E+01
   -.614E+00 -.326E+00 0.223E+01   -.711E-13 0.296E-12 0.227E-12   0.615E+00 0.184E+00 -.201E+01

 POSITION                                       TOTAL-FORCE (eV/Angst)
      2.84305      0.03873     10.05555        -0.027818     -0.068387      0.004386
      0.73340      1.27323     10.05063        -0.008650      0.007872      0.006483
      1.41893      0.02362     10.04743         0.021095     -0.032346      0.005945
      3.56104      1.28969     10.06857         0.048933      0.027255      0.007584
      2.88682      2.56202     10.05297         0.040161     -0.026030      0.002851
      0.73206      3.76239     10.04885         0.007925     -0.025199      0.012214
      1.44964      2.52763     10.04605        -0.022512     -0.002673      0.009300
      3.61623      3.82103     10.05218         0.095265     -0.112968      0.012446
      2.88205      5.08714     10.02380         0.125469      0.356954      0.007199
      0.68639      6.23899     10.03756         0.090077     -0.032653      0.005201
      1.43354      5.01882     10.03520        -0.051903      0.053183      0.011693
      2.83256      7.45983     10.01570        -0.024484     -0.188552     -0.003528
      0.66881      8.70150     10.03897         0.018734      0.015704      0.000334
      1.39948      7.47683     10.03064         0.061260      0.015595     -0.003831
      3.56459      8.72214     10.02670         0.348466      0.024982     -0.012854
      2.82899      9.94347     10.04100        -0.029764     -0.034852     -0.007920
      0.69751     11.17894     10.04636         0.015230      0.017118      0.006888
      1.39465      9.93550     10.04097        -0.023058     -0.029227      0.000178
      3.53782     11.19185     10.05551        -0.008951      0.029200      0.003933
      7.10158     12.39045     10.11449        -0.020927      0.052335     -0.008080
      4.98098      1.26023     10.10120        -0.039970      0.031230     -0.004031
      5.68111      0.00989     10.10044         0.031311     -0.037631     -0.004728
      7.83473      1.20583     10.14018        -0.029902     -0.024233     -0.011444
      7.13270      2.43202     10.15825         0.037701      0.081486     -0.020791
      5.05901      3.77316     10.09891         0.090582      0.092299     -0.015115
      5.71116      2.48716     10.12850        -0.018808     -0.004893     -0.014346
      7.88043      3.62706     10.17452        -0.047462      0.024146     -0.045368
      7.18567      4.83150     10.15276        -0.170262      0.239384     -0.075033
      7.09857      9.91067     10.05478         0.247170     -0.034977     -0.016396
      4.96328     11.17159     10.07075         0.055234      0.049253     -0.003844
      5.64329      9.91726     10.05191        -0.255331     -0.300558     -0.030611
      7.79963     11.15352     10.08791        -0.072340     -0.090862     -0.016835
     11.38853      0.00571     10.07139        -0.012787     -0.032317      0.003533
      9.26251      1.22304     10.12565         0.022509     -0.006661     -0.011877
      9.96170     12.39046     10.09335         0.001284      0.059613     -0.002810
     12.11659      1.24912     10.06745         0.004015      0.017759      0.009160
     11.41380      2.48444     10.08794        -0.003387      0.001833      0.008121
      9.28903      3.67883     10.14906        -0.033366      0.015750     -0.014515
      9.99307      2.45449     10.12517        -0.030056      0.032600     -0.001026
     12.10997      3.73977     10.07345         0.006364     -0.008747      0.000404
     11.37562      4.97131     10.08277         0.000347      0.019770      0.003621
      9.16303      6.14930     10.10180        -0.154719      0.007938     -0.026289
      9.94932      4.94092     10.11853        -0.005560     -0.031019     -0.007163
     12.05725      6.22351     10.05645        -0.045971     -0.003877      0.005539
     11.29916      7.44469     10.05374         0.075885     -0.000806      0.002655
      9.12515      8.68940     10.04602        -0.363475      0.008806     -0.003277
      9.84612      7.42549     10.06149        -0.003065     -0.113154      0.005958
     12.04184      8.68059     10.04566         0.011360     -0.036630      0.004074
     11.34279      9.92002     10.05398        -0.001732      0.004699     -0.004089
      9.22692     11.15718     10.08038         0.015983     -0.038187     -0.000612
      9.90741      9.91152     10.05926        -0.025740      0.077108      0.002714
     12.07681     11.16070     10.05526        -0.018205      0.012670     -0.000002
      3.54029      6.29354      9.99938        -0.680756     -0.124885      0.022861
      5.83026      4.91223     10.10764         0.394871     -0.588470     -0.008877
      7.79182      6.04965     10.11381         0.382625     -0.606956     -0.000111
      4.95068      8.72003     10.02255        -0.611013      1.123082      0.072846
      7.75065      8.71664     10.02441         0.428946      0.537146      0.032527
      5.93319      7.00053      9.91360         0.172121     -0.399742      0.184309
      6.10853      7.03067      7.19717        -0.008949      0.000724     -0.079552
    total drift:                               -0.000857      0.002500     -0.004855

  FREE ENERGIE OF THE ION-ELECTRON SYSTEM (eV)
  free  energy   TOTEN  =      -611.96017235 eV

  energy  without entropy=     -611.95127956  energy(sigma->0) =     -611.95572596

 stress matrix after NEB project (eV)
    -48.44916    -19.38430      0.05796
    -19.38435    -45.12498     -0.02534
      0.06473     -0.03413     -0.21886
  FORCES: max atom, RMS     1.280608    0.284407
  FORCE total and by dimension    2.184569    1.123082
  Stress total and by dimension   71.659937   48.449161
 writing wavefunctions

 total charge

[...]

 magnetization (x)

# of ion       s       p       d       tot
    1        0.000   0.001   0.000   0.001
    2       -0.000  -0.000   0.000  -0.000
    3       -0.000  -0.000   0.000  -0.001
    4        0.000   0.001   0.000   0.001
    5       -0.000  -0.001   0.000  -0.001
    6        0.000  -0.000   0.000  -0.000
    7        0.000   0.000   0.000   0.000
    8        0.000   0.004   0.000   0.004
    9        0.000  -0.003   0.000  -0.002
   10       -0.000  -0.002   0.000  -0.002
   11        0.001   0.002   0.000   0.003
   12       -0.000   0.003   0.000   0.003
   13        0.000   0.002   0.000   0.002
   14        0.000   0.001   0.000   0.001
   15       -0.001  -0.004   0.000  -0.005
   16        0.000   0.003   0.000   0.003
   17        0.000  -0.000   0.000  -0.000
   18       -0.000  -0.000   0.000  -0.000
   19       -0.000  -0.003   0.000  -0.003
   20        0.000   0.001   0.000   0.001
   21        0.000  -0.000   0.000  -0.000
   22        0.000  -0.000   0.000  -0.000
   23       -0.000  -0.000   0.000  -0.000
   24        0.000  -0.001   0.000  -0.001
   25        0.001  -0.001   0.000  -0.000
   26        0.001   0.003   0.000   0.004
   27       -0.000  -0.000   0.000  -0.000
   28       -0.000  -0.001   0.000  -0.002
   29       -0.000   0.002   0.000   0.002
   30        0.000   0.002   0.000   0.003
   31       -0.001  -0.005   0.000  -0.005
   32        0.000   0.000   0.000   0.000
   33       -0.000  -0.001   0.000  -0.001
   34       -0.000  -0.000   0.000  -0.000
   35        0.000   0.000   0.000   0.000
   36        0.000   0.000   0.000   0.000
   37       -0.000  -0.001   0.000  -0.001
   38        0.000  -0.002   0.000  -0.002
   39        0.000   0.001   0.000   0.001
   40        0.000   0.001   0.000   0.001
   41       -0.000  -0.001   0.000  -0.001
   42        0.001  -0.003   0.000  -0.003
   43        0.001   0.003   0.000   0.004
   44        0.000   0.002   0.000   0.002
   45       -0.000  -0.001   0.000  -0.001
   46        0.000  -0.002   0.000  -0.002
   47        0.000   0.005   0.000   0.005
   48        0.000   0.000   0.000   0.000
   49        0.000  -0.001   0.000  -0.001
   50       -0.000  -0.001   0.000  -0.001
   51        0.001   0.002   0.000   0.003
   52        0.000   0.000   0.000   0.000
   53        0.009   0.034   0.000   0.044
   54        0.010   0.028   0.000   0.038
   55        0.011   0.029   0.000   0.039
   56        0.002   0.023   0.000   0.026
   57        0.009   0.035   0.000   0.044
   58        0.040   0.020   3.562   3.622
   59        0.021   0.003   0.002   0.026
tot          0.107   0.177   3.564   3.847