 vasp.5.4.4.18Apr17-6-g9f103f2a35 (build Feb 25 2019 10:51:38) complex

 executed on             LinuxIFC date 2021.06.16  07:17:51

 INCAR:
 POTCAR:    PAW_PBE C 08Apr2002
 POTCAR:    PAW_PBE N 08Apr2002
 POTCAR:    PAW_PBE Cu 22Jun2005
 POTCAR:    PAW_PBE Fe 06Sep2000

 POTCAR:    PAW_PBE C 08Apr2002
   VRHFIN =C: s2p2

   TITEL  = PAW_PBE C 08Apr2002
   POMASS =   12.011; ZVAL   =    4.000    mass and valenz
   ENMAX  =  400.000; ENMIN  =  300.000 eV

 POTCAR:    PAW_PBE N 08Apr2002
   VRHFIN =N: s2p3

   TITEL  = PAW_PBE N 08Apr2002
   POMASS =   14.001; ZVAL   =    5.000    mass and valenz
   ENMAX  =  400.000; ENMIN  =  300.000 eV

 POTCAR:    PAW_PBE Cu 22Jun2005
   VRHFIN =Cu: d10 p1

   TITEL  = PAW_PBE Cu 22Jun2005
   POMASS =   63.546; ZVAL   =   11.000    mass and valenz
   ENMAX  =  295.446; ENMIN  =  221.585 eV

 POTCAR:    PAW_PBE Fe 06Sep2000
   VRHFIN =Fe:  d7 s1

   TITEL  = PAW_PBE Fe 06Sep2000
   POMASS =   55.847; ZVAL   =    8.000    mass and valenz
   ENMAX  =  267.882; ENMIN  =  200.911 eV

  PAW_PBE C 08Apr2002                   :
  PAW_PBE N 08Apr2002                   :
  PAW_PBE Cu 22Jun2005                  :
  PAW_PBE Fe 06Sep2000                  :

 POSCAR:  C  N Cu Fe
  positions in cartesian coordinates
 exchange correlation table for  LEXCH =        8
   RHO(1)=    0.500       N(1)  =     2000
   RHO(2)=  100.500       N(2)  =     4000

 VTST: version 3.2, (02/03/18)

 CHAIN: initializing optimizer

 OPT: Using VASP Conjugate-Gradient optimizer
 CHAIN: Read ICHAIN            0

 POSCAR:  C  N Cu Fe
  positions in cartesian coordinates

 ion  position               nearest neighbor table
   1  0.228  1.000  0.500-   3 1.46   4 1.46  18 1.47
   2  0.058  0.099  0.500-   7 1.42   3 1.43  33 1.45
   3  0.116  1.000  0.500-  16 1.43   2 1.43   1 1.46
   4  0.283  0.104  0.500-  20 1.46   1 1.46   5 1.46
   5  0.222  0.205  0.499-  50 1.37   7 1.45   4 1.46
   6  0.051  0.298  0.500-  10 1.41  37 1.42   7 1.43
   7  0.111  0.200  0.500-   2 1.42   6 1.43   5 1.45
   8  0.210  0.399  0.500-  50 1.37  10 1.40  11 1.42
   9  0.048  0.500  0.500-  41 1.41  10 1.42  14 1.42
  10  0.102  0.400  0.500-   8 1.40   6 1.41   9 1.42
  11  0.264  0.500  0.499-  54 1.34  12 1.42   8 1.42
  12  0.209  0.600  0.500-  51 1.38  14 1.39  11 1.42
  13  0.051  0.701  0.500-  14 1.41  45 1.42  17 1.43
  14  0.102  0.600  0.500-  12 1.39  13 1.41   9 1.42
  15  0.223  0.794  0.500-  51 1.39  17 1.45  18 1.46
  16  0.058  0.900  0.500-  17 1.42   3 1.43  49 1.45
  17  0.112  0.799  0.500-  16 1.42  13 1.43  15 1.45
  18  0.283  0.895  0.500-  15 1.46  28 1.46   1 1.47
  19  0.558  1.000  0.500-  29 1.43  22 1.43  21 1.43
  20  0.395  0.104  0.500-  52 1.39  21 1.45   4 1.46
  21  0.448  0.999  0.500-  19 1.43  28 1.45  20 1.45
  22  0.614  0.100  0.500-  23 1.42  19 1.43  31 1.43
  23  0.558  0.199  0.500-  52 1.38  22 1.42  24 1.45
  24  0.613  0.302  0.499-  53 1.40  35 1.42  23 1.45
  25  0.609  0.500  0.499-  53 1.38  55 1.41  39 1.45
  26  0.614  0.698  0.500-  55 1.41  43 1.41  27 1.44
  27  0.559  0.801  0.500-  56 1.39  29 1.42  26 1.44
  28  0.395  0.895  0.500-  56 1.40  21 1.45  18 1.46
  29  0.614  0.900  0.500-  27 1.42  19 1.43  47 1.43
  30  0.891  1.000  0.500-  33 1.42  49 1.42  32 1.44
  31  0.724  0.099  0.500-  36 1.41  32 1.42  22 1.43
  32  0.781  1.000  0.500-  47 1.42  31 1.42  30 1.44
  33  0.947  0.099  0.500-  30 1.42  34 1.43   2 1.45
  34  0.889  0.199  0.500-  37 1.41  33 1.43  36 1.43
  35  0.722  0.299  0.500-  24 1.42  40 1.42  36 1.43
  36  0.779  0.199  0.500-  31 1.41  35 1.43  34 1.43
  37  0.942  0.299  0.500-  34 1.41   6 1.42  38 1.43
  38  0.885  0.399  0.500-  41 1.42  40 1.42  37 1.43
  39  0.720  0.500  0.500-  44 1.43  40 1.43  25 1.45
  40  0.776  0.400  0.500-  35 1.42  38 1.42  39 1.43
  41  0.940  0.500  0.500-   9 1.41  42 1.42  38 1.42
  42  0.886  0.600  0.500-  41 1.42  44 1.42  45 1.43
  43  0.723  0.701  0.500-  26 1.41  44 1.42  48 1.43
  44  0.777  0.600  0.500-  42 1.42  43 1.42  39 1.43
  45  0.942  0.701  0.500-  46 1.41  13 1.42  42 1.43
  46  0.889  0.801  0.500-  45 1.41  49 1.43  48 1.43
  47  0.725  0.901  0.500-  48 1.41  32 1.42  29 1.43
  48  0.779  0.801  0.500-  47 1.41  43 1.43  46 1.43
  49  0.947  0.900  0.500-  30 1.42  46 1.43  16 1.45
  50  0.268  0.306  0.499-   8 1.37   5 1.37  57 1.98
  51  0.270  0.692  0.500-  12 1.38  15 1.39  58 1.94
  52  0.452  0.199  0.499-  23 1.38  20 1.39  57 1.98
  53  0.559  0.401  0.499-  25 1.38  24 1.40  57 1.99
  54  0.366  0.505  0.499-  11 1.34  58 1.82  57 1.93
  55  0.557  0.601  0.499-  25 1.41  26 1.41  58 1.96
  56  0.452  0.799  0.500-  27 1.39  28 1.40  58 1.96
  57  0.412  0.355  0.499-  54 1.93  50 1.98  52 1.98  53 1.99
  58  0.413  0.645  0.499-  54 1.82  51 1.94  56 1.96  55 1.96

  LATTYP: Found a triclinic cell.
 ALAT       =    34.1580519312
 B/A-ratio  =     0.3588407215
 C/A-ratio  =     0.5832621849
 COS(alpha) =     0.0000471239
 COS(beta)  =     0.5834076759
 COS(gamma) =     0.7173759094

  Lattice vectors:

 A1 = ( -12.9935059504,  24.5155345906, -19.9230991212)
 A2 = (   0.0107179038,  12.2572953141,   0.0000000000)
 A3 = (  -0.0058417579,   0.0009439624, -19.9230991212)

Analysis of symmetry for initial positions (statically):
 Subroutine PRICEL returns:
 Original cell was already a primitive cell.

 Routine SETGRP: Setting up the symmetry group for a
 triclinic supercell.

 Subroutine GETGRP returns: Found  1 space group operations
 (whereof  1 operations were pure point group operations)
 out of a pool of  2 trial point group operations.

The static configuration has the point symmetry C_1 .

Analysis of symmetry for dynamics (positions and initial velocities):
 Subroutine PRICEL returns:
 Original cell was already a primitive cell.

[...]

The dynamic configuration has the point symmetry C_1 .

Analysis of structural, dynamic, and magnetic symmetry:
 Subroutine PRICEL returns:
 Original cell was already a primitive cell.

 Routine SETGRP: Setting up the symmetry group for a
 triclinic supercell.

 Subroutine GETGRP returns: Found  1 space group operations
 (whereof  1 operations were pure point group operations)
 out of a pool of  2 trial point group operations.

The magnetic configuration has the point symmetry C_1 .

 Subroutine INISYM returns: Found  1 space group operations
 (whereof  1 operations are pure point group operations),
 and found     1 'primitive' translations

 KPOINTS: KPOINTS created by Atomic Simulation Env

Automatic generation of k-mesh.
Space group operators:
 irot       det(A)        alpha          n_x          n_y          n_z        tau_x        tau_y        tau_z
    1     1.000000     0.000001     1.000000     0.000000     0.000000     0.000000     0.000000     0.000000

 Subroutine IBZKPT returns following result:

 Found      2 irreducible k-points:

 Following reciprocal coordinates:
            Coordinates               Weight
  0.250000  0.250000  0.000000      2.000000
 -0.250000  0.250000 -0.000000      2.000000

 Following cartesian coordinates:
            Coordinates               Weight
  0.019217  0.020379 -0.000005      2.000000
 -0.019217  0.020413  0.000007      2.000000

 Subroutine IBZKPT_HF returns following result:

 Found      4 k-points in 1st BZ
 the following      4 k-points will be used (e.g. in the exchange kernel)
 Following reciprocal coordinates:   # in IRBZ
  0.250000  0.250000  0.000000    0.25000000   1 t-inv F
 -0.250000  0.250000 -0.000000    0.25000000   2 t-inv F
 -0.250000 -0.250000 -0.000000    0.25000000   1 t-inv T
  0.250000 -0.250000  0.000000    0.25000000   2 t-inv T

 SYSTEM =  unknown system
 POSCAR =   C  N Cu Fe

 Startparameter for this run:
   NWRITE =      2    write-flag & timer
   PREC   = accura    normal or accurate (medium, high low for compatibility)
   ISTART =      1    job   : 0-new  1-cont  2-samecut
   ICHARG =      0    charge: 1-file 2-atom 10-const
   ISPIN  =      2    spin polarized calculation?
   LNONCOLLINEAR =      F non collinear calculations
   LSORBIT =      F    spin-orbit coupling
   INIWAV =      1    electr: 0-lowe 1-rand  2-diag
   LASPH  =      T    aspherical Exc in radial PAW
   METAGGA=      F    non-selfconsistent MetaGGA calc.

 Electronic Relaxation 1
   ENCUT  =  500.0 eV  36.75 Ry    6.06 a.u.  23.72 22.35 36.32*2*pi/ulx,y,z
   ENINI  =  500.0     initial cutoff
   ENAUG  =  644.9 eV  augmentation charge cutoff
   NELM   =    250;   NELMIN=  2; NELMDL=  0     # of ELM steps
   EDIFF  = 0.1E-03   stopping-criterion for ELM
   LREAL  =      F    real-space projection
   NLSPLINE    = F    spline interpolate recip. space projectors
   LCOMPAT=      F    compatible to vasp.4.4
   GGA_COMPAT  = T    GGA compatible to vasp.4.4-vasp.4.6
   LMAXPAW     = -100 max onsite density
   LMAXMIX     =    2 max onsite mixed and CHGCAR
   VOSKOWN=      0    Vosko Wilk Nusair interpolation
   ROPT   =    0.00000   0.00000   0.00000   0.00000
 Ionic relaxation
   EDIFFG = -.3E-01   stopping-criterion for IOM
   NSW    =      0    number of steps for IOM
   NBLOCK =      1;   KBLOCK =      1    inner block; outer block
   IBRION =     -1    ionic relax: 0-MD 1-quasi-New 2-CG
   NFREE  =      1    steps in history (QN), initial steepest desc. (CG)
   ISIF   =      2    stress and relaxation
   IWAVPR =     10    prediction:  0-non 1-charg 2-wave 3-comb
   ISYM   =      3    0-nonsym 1-usesym 2-fastsym
   LCORR  =      T    Harris-Foulkes like correction to forces

   POTIM  = 0.5000    time-step for ionic-motion
   TEIN   =    0.0    initial temperature
   TEBEG  =    0.0;   TEEND  =   0.0 temperature during run
   SMASS  =  -3.00    Nose mass-parameter (am)
   estimated Nose-frequenzy (Omega)   =  0.10E-29 period in steps =****** mass=  -0.387E-26a.u.
   SCALEE = 1.0000    scale energy and forces
   NPACO  =    256;   APACO  = 16.0  distance and # of slots for P.C.
   PSTRESS=    0.0 pullay stress

  Mass of Ions in am
   POMASS =  12.01 14.00 63.55 55.85
  Ionic Valenz
   ZVAL   =   4.00  5.00 11.00  8.00
  Atomic Wigner-Seitz radii
  virtual crystal weights
   VCA    =   1.00  1.00  1.00  1.00
   NELECT =     250.0000    total number of electrons
   NUPDOWN=      -1.0000    fix difference up-down

 DOS related values:
   EMIN   =  10.00;   EMAX   =-10.00  energy-range for DOS
   EFERMI =   0.00
   ISMEAR =     0;   SIGMA  =   0.10  broadening in eV -4-tet -1-fermi 0-gaus

 Electronic relaxation 2 (details)
   IALGO  =     53    algorithm
   LDIAG  =      T    sub-space diagonalisation (order eigenvalues)
   LSUBROT=      F    optimize rotation matrix (better conditioning)
   TURBO    =      0    0=normal 1=particle mesh
   IRESTART =      0    0=no restart 2=restart with 2 vectors
   NREBOOT  =      0    no. of reboots
   NMIN     =      0    reboot dimension
   EREF     =   0.00    reference energy to select bands
   IMIX   =      4    mixing-type and parameters
     AMIX     =   0.40;   BMIX     =  1.00
     AMIX_MAG =   1.60;   BMIX_MAG =  1.00
     AMIN     =   0.10
     WC   =   100.;   INIMIX=   1;  MIXPRE=   1;  MAXMIX= -45

 Intra band minimization:
   WEIMIN = 0.0000     energy-eigenvalue tresh-hold
[...]
   33        0.863   1.764   0.000   2.627
   34        0.869   1.774   0.000   2.643
   35        0.869   1.782   0.000   2.651
   36        0.866   1.781   0.000   2.647
   37        0.868   1.789   0.000   2.657
   38        0.867   1.782   0.000   2.649
   39        0.863   1.769   0.000   2.633
   40        0.869   1.776   0.000   2.645
   41        0.874   1.790   0.000   2.664
   42        0.867   1.782   0.000   2.650
   43        0.869   1.786   0.000   2.655
   44        0.870   1.779   0.000   2.649
   45        0.868   1.790   0.000   2.658
   46        0.869   1.776   0.000   2.645
   47        0.868   1.787   0.000   2.656
   48        0.866   1.782   0.000   2.648
   49        0.863   1.763   0.000   2.626
   50        1.234   2.671   0.000   3.905
   51        1.232   2.659   0.000   3.891
   52        1.227   2.660   0.000   3.888
   53        1.222   2.659   0.000   3.881
   54        1.254   2.584   0.000   3.838
   55        1.221   2.645   0.000   3.866
   56        1.227   2.653   0.000   3.881
   57        0.426   0.466   9.080   9.972
   58        0.454   0.623   6.246   7.322
tot         51.822 105.923  15.326 173.071

 magnetization (x)

[...]

  FORCE on cell =-STRESS in cart. coord.  units (eV):
  Direction    XX          YY          ZZ          XY          YZ          ZX
  Alpha Z   103.09048   103.09048   103.09048
  Ewald   49773.01820 49914.25305-58876.46581    -5.96660     0.39507    -1.56794
  Hartree 49448.13022 49486.04528-48670.98408   -14.82874     0.42473    -0.81316
  E(xc)    -745.07609  -744.86669  -759.66279    -0.10597     0.00157    -0.00012
  Local  ************************104326.44913    22.92922    -0.82270     2.34888
  n-local  -104.71710   -99.69561   -91.84029     0.76417    -0.00131    -0.00773
  augment   103.79648   104.44064   115.07629    -0.09699    -0.02261    -0.01188
  Kinetic  3733.13461  3705.95604  4251.06985    -3.49937     0.00223     0.03685
  Fock     -412.43958  -412.88558  -397.32023     0.60165     0.03113     0.02623
  Total     -44.95229   -43.44633    -0.58746    -0.20264     0.00811     0.01114
  in kB     -22.67063   -21.91113    -0.29627    -0.10220     0.00409     0.00562

 VOLUME and BASIS-vectors are now :
  energy-cutoff  :      500.00
  volume of cell :     3176.87
      direct lattice vectors                 reciprocal lattice vectors
    13.009100000  0.000000000  0.000000000     0.076869268 -0.000067215 -0.000022542
     0.010717904 12.257295314  0.000000000     0.000000000  0.081584067  0.000003865
     0.005841758 -0.000943962 19.923099121     0.000000000  0.000000000  0.050192994

  length of vectors
    13.009100000 12.257300000 19.923100000     0.076869301  0.081584067  0.050192994

 FORCES acting on ions:
    Electron-Ion                     Ewald-Force                    Non-Local-Force
   0.350E+01 0.404E+01 -.182E+00   -.334E+01 -.401E+01 0.185E+00   -.120E+00 -.229E-01 -.605E-02
   0.595E+01 0.122E+02 -.663E+00   -.587E+01 -.125E+02 0.664E+00   -.116E+00 0.295E+00 -.324E-02
   -.682E+01 0.170E+01 -.417E+00   0.689E+01 -.175E+01 0.412E+00   -.125E+00 -.598E-02 0.694E-03
   0.115E+02 0.211E+02 0.794E+00   -.116E+02 -.212E+02 -.800E+00   0.101E+00 0.187E-01 0.794E-02
   0.229E+02 0.628E+02 0.934E+00   -.243E+02 -.660E+02 -.908E+00   0.135E+01 0.342E+01 -.203E-01
   0.169E+02 0.165E+02 -.115E+01   -.172E+02 -.167E+02 0.115E+01   0.240E+00 0.192E+00 0.386E-02
   0.821E+01 0.185E+02 -.359E+00   -.839E+01 -.188E+02 0.360E+00   0.141E+00 0.306E+00 -.184E-02
   0.522E+02 -.162E+02 0.603E-01   -.541E+02 0.191E+02 -.398E-01   0.166E+01 -.323E+01 -.199E-01
   0.142E+02 -.188E+01 -.268E+01   -.144E+02 0.188E+01 0.269E+01   0.122E+00 0.150E-01 -.119E-01
   0.286E+02 0.128E-01 -.187E+01   -.289E+02 0.316E+00 0.188E+01   0.458E+00 -.310E+00 -.142E-01
   0.664E+02 -.708E+01 0.256E+00   -.666E+02 0.721E+01 -.266E+00   0.113E+01 0.182E+00 -.109E-02
   0.406E+02 0.102E+01 -.118E+01   -.423E+02 -.402E+01 0.120E+01   0.163E+01 0.324E+01 -.163E-01
   0.131E+02 -.180E+02 -.124E+01   -.134E+02 0.182E+02 0.124E+01   0.271E+00 -.209E+00 0.177E-03
   0.260E+02 -.408E+01 -.228E+01   -.265E+02 0.381E+01 0.228E+01   0.463E+00 0.274E+00 -.104E-01
   0.121E+02 -.507E+02 -.372E+00   -.135E+02 0.540E+02 0.380E+00   0.133E+01 -.334E+01 -.100E-01
   0.461E+01 -.833E+01 -.569E+00   -.447E+01 0.866E+01 0.571E+00   -.114E+00 -.271E+00 -.321E-02
   0.347E+01 -.163E+02 -.693E+00   -.361E+01 0.166E+02 0.691E+00   0.146E+00 -.262E+00 0.185E-02
   0.774E+01 -.113E+02 -.325E+00   -.796E+01 0.113E+02 0.321E+00   0.126E+00 -.928E-02 -.424E-03
   -.325E+01 0.402E+01 -.159E+01   0.330E+01 -.397E+01 0.158E+01   -.117E+00 -.523E-01 0.945E-03
   0.328E+02 0.451E+02 0.308E+00   -.352E+02 -.477E+02 -.298E+00   0.244E+01 0.265E+01 -.103E-01
   0.138E+02 0.562E+01 -.995E+00   -.141E+02 -.554E+01 0.997E+00   0.407E+00 -.333E-02 -.629E-02
   -.177E+02 0.142E+02 -.136E+01   0.185E+02 -.141E+02 0.137E+01   -.662E+00 -.754E-01 -.104E-01
   -.515E+02 0.234E+02 0.777E-01   0.548E+02 -.235E+02 -.621E-01   -.329E+01 0.338E-01 -.152E-01
   -.425E+02 0.321E+02 0.684E+00   0.445E+02 -.346E+02 -.662E+00   -.171E+01 0.254E+01 -.187E-01
   -.311E+02 -.138E+02 0.112E+01   0.343E+02 0.139E+02 -.108E+01   -.334E+01 -.552E-01 -.371E-01
   -.271E+02 -.255E+02 -.252E+00   0.290E+02 0.277E+02 0.266E+00   -.173E+01 -.242E+01 -.176E-01
   -.348E+02 -.137E+02 -.117E+01   0.378E+02 0.139E+02 0.118E+01   -.325E+01 -.412E-01 -.136E-01
   0.301E+02 -.269E+02 -.661E+00   -.324E+02 0.294E+02 0.653E+00   0.244E+01 -.272E+01 0.148E-02
   -.137E+02 -.824E+01 -.184E+01   0.144E+02 0.819E+01 0.185E+01   -.666E+00 -.191E-02 -.137E-01
   -.597E+00 0.121E+01 -.619E+00   0.644E+00 -.122E+01 0.618E+00   -.896E-01 0.994E-02 0.349E-02
   -.542E+01 0.810E+01 -.136E+01   0.585E+01 -.809E+01 0.136E+01   -.374E+00 0.281E-01 -.531E-05
   -.108E+02 0.871E+00 -.106E+01   0.110E+02 -.867E+00 0.106E+01   -.104E+00 -.113E-01 -.114E-02
   -.764E+01 0.334E+01 -.896E+00   0.776E+01 -.339E+01 0.898E+00   -.975E-01 0.389E-01 -.209E-02
   0.299E+00 0.998E+01 -.124E+01   -.243E+00 -.100E+02 0.124E+01   -.361E-01 0.931E-01 0.882E-03
   -.214E+02 0.117E+02 -.808E+00   0.215E+02 -.122E+02 0.809E+00   -.299E+00 0.396E+00 -.573E-02
   -.120E+02 0.216E+01 -.136E+01   0.121E+02 -.255E+01 0.136E+01   -.135E+00 0.285E+00 -.505E-02
   0.318E+01 0.219E+01 -.148E+01   -.334E+01 -.227E+01 0.148E+01   0.216E+00 0.195E-01 -.195E-02
   -.150E+00 0.510E+01 -.163E+01   0.260E+00 -.517E+01 0.163E+01   -.178E+00 0.116E+00 -.232E-02
   -.163E+02 -.334E+01 -.645E+00   0.170E+02 0.340E+01 0.653E+00   -.459E+00 -.291E-01 -.120E-01
   -.139E+02 -.122E+00 -.954E+00   0.142E+02 0.860E-01 0.948E+00   -.263E+00 0.104E+00 0.415E-02
   0.754E+01 -.897E+00 -.199E+01   -.746E+01 0.875E+00 0.199E+01   -.727E-01 0.160E-02 -.374E-03
   -.435E+00 -.679E+01 -.122E+01   0.610E+00 0.690E+01 0.123E+01   -.167E+00 -.114E+00 -.182E-03
   -.161E+02 -.111E+02 -.609E+00   0.163E+02 0.115E+02 0.607E+00   -.396E+00 -.364E+00 -.974E-03
   -.111E+02 -.223E+01 -.765E+00   0.115E+02 0.220E+01 0.763E+00   -.341E+00 -.104E+00 -.229E-04
   0.291E+01 -.262E+01 -.788E+00   -.304E+01 0.268E+01 0.788E+00   0.170E+00 -.445E-01 0.424E-02
   0.574E+00 -.912E+01 -.337E+00   -.519E+00 0.923E+01 0.336E+00   -.635E-01 -.870E-01 0.515E-02
   -.363E+01 -.515E+01 -.115E+01   0.408E+01 0.517E+01 0.114E+01   -.385E+00 -.409E-01 0.431E-02
   -.101E+02 -.105E+01 -.693E+00   0.103E+02 0.144E+01 0.695E+00   -.150E+00 -.293E+00 -.599E-03
   -.864E+01 -.237E+01 -.405E+00   0.874E+01 0.239E+01 0.407E+00   -.112E+00 -.280E-01 0.635E-03
   0.183E+02 0.562E+02 0.361E+01   0.303E+01 -.552E+02 -.384E+01   -.202E+02 -.101E+01 0.230E+00
   -.200E+02 -.518E+02 0.792E+00   0.398E+02 0.504E+02 -.939E+00   -.189E+02 0.131E+01 0.141E+00
   0.233E+02 0.453E+02 0.176E+01   -.343E+02 -.272E+02 -.192E+01   0.104E+02 -.170E+02 0.148E+00
   -.203E+02 -.285E+02 0.423E+01   -.111E+01 0.281E+02 -.447E+01   0.202E+02 0.409E+00 0.251E+00
   -.598E+02 -.364E+02 0.547E+01   0.804E+02 0.358E+02 -.570E+01   -.200E+02 -.336E+00 0.214E+00
   0.139E+02 0.709E+01 0.252E+01   -.340E+02 -.695E+01 -.267E+01   0.193E+02 -.376E+00 0.150E+00
   0.346E+02 -.416E+01 -.440E+00   -.449E+02 -.132E+02 0.365E+00   0.992E+01 0.166E+02 0.669E-01
   -.255E+02 0.257E+02 0.127E+02   0.239E+02 -.217E+02 -.127E+02   0.162E+01 -.381E+01 -.614E-01
   -.259E+02 -.520E+02 0.601E+01   0.246E+02 0.501E+02 -.597E+01   0.126E+01 0.282E+01 -.291E-01
   0.723E+00 0.145E+01 -.950E+00   -.210E-12 -.192E-12 0.213E-13   -.553E+00 -.130E+01 0.855E+00

 POSITION                                       TOTAL-FORCE (eV/Angst)
      2.98169     12.25243      9.95746         0.028828      0.005790     -0.003200
      0.75821      1.21579      9.96124        -0.034892      0.061626     -0.003080
      1.52045     12.25256      9.96017        -0.070026     -0.057014     -0.003433
      3.67969      1.27415      9.95287        -0.014696     -0.054857      0.002433
      2.89670      2.51023      9.95138        -0.000670      0.406679      0.004566
      0.66943      3.65824      9.96260        -0.034366      0.011526     -0.001191
      1.44658      2.45643      9.95870        -0.038953     -0.045017     -0.000422
      2.73819      4.88848      9.95279        -0.118250     -0.532303     -0.000516
      0.63120      6.12451      9.96715        -0.025331      0.022737     -0.008379
      1.33810      4.89706      9.96266         0.157466     -0.005384     -0.007577
      3.43897      6.12678      9.95016         0.992006      0.334368     -0.011591
      2.73280      7.35407      9.95795        -0.000963      0.411031     -0.002239
      0.67646      8.59340      9.96396        -0.037394     -0.031540     -0.000153
      1.34030      7.35301      9.96495         0.038988      0.026838     -0.006098
      2.91518      9.73492      9.95803         0.000461     -0.310969     -0.002408
      0.77281     11.03207      9.96168         0.022309      0.039145     -0.001338
      1.46548      9.78910      9.96144         0.005553      0.006072     -0.000145
      3.69095     10.97021      9.95797        -0.086131      0.020382     -0.004414
      7.27607     12.25594      9.96252        -0.066616     -0.010062     -0.007842
      5.14087      1.27185      9.95313         0.208100      0.172808     -0.000871
      5.84120     12.24808      9.95916         0.074566      0.074403     -0.005250
      7.99507      1.22384      9.96133         0.025150      0.074088     -0.005649
      7.26511      2.44318      9.95358        -0.214726     -0.148211     -0.000371
      7.98442      3.70655      9.95148         0.191120      0.201312      0.002401
      7.92865      6.12943      9.94938        -0.258075      0.096767      0.002867
      7.99651      8.55986      9.95643         0.043525     -0.315446     -0.004532
      7.28377      9.81241      9.95992        -0.351728      0.205916     -0.007679
      5.15026     10.97466      9.95837         0.284680     -0.369759     -0.006517
      8.00665     11.03202      9.96395         0.035937     -0.059838     -0.006765
     11.60564     12.25457      9.96333        -0.037430      0.006185      0.003136
      9.42761      1.21823      9.96390         0.043975      0.045994     -0.002529
     10.16820     12.25617      9.96425         0.028278     -0.008531      0.001878
     12.31918      1.21904      9.96357         0.009898     -0.012981     -0.000254
     11.56612      2.43379      9.96471         0.024340      0.041041     -0.001399
      9.40164      3.66819      9.95972        -0.206139     -0.072643     -0.005763
     10.13418      2.43914      9.96380        -0.015215     -0.095174     -0.004032
     12.25592      3.66448      9.96518         0.063493     -0.073278     -0.000501
     11.52589      4.89555      9.96556        -0.076075      0.060152     -0.000937
      9.37694      6.13240      9.95847         0.169539      0.032853     -0.004627
     10.10305      4.90417      9.96156         0.083831      0.068356     -0.002458
     12.23161      6.12618      9.96694         0.004838     -0.020593     -0.001847
     11.53110      7.35951      9.96465        -0.000339     -0.019425      0.001387
      9.41075      8.59014      9.96047        -0.175084      0.089921     -0.002848
     10.11117      7.35463      9.96145        -0.010601     -0.127763     -0.002903
     12.26556      8.58933      9.96376         0.051387      0.024031      0.003969
     11.57667      9.82065      9.96252        -0.004961      0.004472      0.004618
      9.43878     11.03824      9.96397         0.046522     -0.030727     -0.000186
     10.14491      9.81726      9.96262        -0.000353      0.085078      0.001514
     12.33218     11.03198      9.96243        -0.037986     -0.004490      0.002482
      3.49022      3.74487      9.94473        -0.675654     -0.086569      0.020616
      3.52190      8.48722      9.95364        -0.725429     -0.017259      0.005834
      5.88806      2.43845      9.94822         0.265413     -0.405733      0.005008
      7.27956      4.91102      9.94267         0.530144      0.046632      0.023045
      4.77261      6.18798      9.93896        -1.215209     -1.051718     -0.000130
      7.25770      7.36402      9.94795         0.870055     -0.270636      0.012741
      5.89597      9.79347      9.95658         0.438896      0.722903     -0.001415
      5.36996      4.35422      9.93632        -0.005875      0.099399      0.017878
      5.37775      7.90757      9.94390        -0.200133      0.739416      0.017116
    total drift:                                0.001413     -0.002945     -0.002623

  FREE ENERGIE OF THE ION-ELECTRON SYSTEM (eV)
  free  energy   TOTEN  =      -602.96706305 eV

  energy  without entropy=     -602.96571528  energy(sigma->0) =     -602.96638917

 stress matrix after NEB project (eV)
    -44.95229     -0.20301      0.01114
     -0.20264    -43.44633      0.00807
      0.01121      0.00811     -0.58746
  FORCES: max atom, RMS     1.607122    0.396688
  FORCE total and by dimension    3.021083    1.215209
  Stress total and by dimension   62.519755   44.952293
 writing wavefunctions

 total charge

[...]

 magnetization (x)

# of ion       s       p       d       tot
    1       -0.000  -0.002   0.000  -0.002
    2       -0.001  -0.005   0.000  -0.006
    3        0.002   0.024   0.000   0.026
    4        0.001   0.006   0.000   0.006
    5       -0.001  -0.006   0.000  -0.007
    6       -0.000   0.002   0.000   0.002
    7       -0.001   0.005   0.000   0.004
    8        0.002   0.034   0.000   0.036
    9        0.002   0.027   0.000   0.029
   10       -0.001  -0.008   0.000  -0.009
   11       -0.001  -0.004   0.000  -0.005
   12        0.001   0.030   0.000   0.031
   13       -0.000  -0.004   0.000  -0.004
   14       -0.001  -0.006   0.000  -0.007
   15       -0.001  -0.015   0.000  -0.017
   16       -0.001  -0.004   0.000  -0.005
   17        0.001   0.013   0.000   0.014
   18        0.001   0.007   0.000   0.008
   19        0.000   0.009   0.000   0.009
   20       -0.001  -0.004   0.000  -0.005
   21       -0.001   0.005   0.000   0.005
   22       -0.000  -0.001   0.000  -0.001
   23        0.001   0.003   0.000   0.004
   24        0.002   0.015   0.000   0.017
   25       -0.000   0.001   0.000   0.001
   26        0.001   0.016   0.000   0.017
   27        0.000   0.008   0.000   0.008
   28       -0.001  -0.005   0.000  -0.006
   29       -0.000  -0.001   0.000  -0.001
   30       -0.000  -0.003   0.000  -0.003
   31       -0.000  -0.004   0.000  -0.004
   32        0.001   0.010   0.000   0.010
   33        0.000   0.005   0.000   0.005
   34       -0.000  -0.004   0.000  -0.004
   35       -0.001  -0.003   0.000  -0.004
   36        0.000   0.004   0.000   0.004
   37        0.001   0.012   0.000   0.012
   38        0.000   0.006   0.000   0.006
   39       -0.001   0.008   0.000   0.007
   40        0.000   0.008   0.000   0.008
   41       -0.001  -0.004   0.000  -0.004
   42        0.000   0.006   0.000   0.007
   43       -0.001  -0.003   0.000  -0.004
   44        0.000   0.008   0.000   0.008
   45        0.001   0.012   0.000   0.013
   46       -0.001  -0.005   0.000  -0.006
   47       -0.000  -0.003   0.000  -0.003
   48        0.000   0.004   0.000   0.004
   49        0.000   0.005   0.000   0.005
   50       -0.014  -0.034   0.000  -0.048
   51       -0.004   0.004   0.000   0.001
   52       -0.011  -0.037   0.000  -0.048
   53       -0.013  -0.041   0.000  -0.055
   54       -0.012   0.035   0.000   0.023
   55       -0.003  -0.000   0.000  -0.004
   56       -0.003  -0.006   0.000  -0.009
   57        0.008   0.014  -0.649  -0.627
   58        0.037   0.021   2.054   2.112
tot         -0.015   0.157   1.406   1.548