 vasp.5.4.4.18Apr17-6-g9f103f2a35 (build Feb 25 2019 10:51:38) complex

 executed on             LinuxIFC date 2021.03.06  00:22:30

 INCAR:
 POTCAR:    PAW_PBE C 08Apr2002
 POTCAR:    PAW_PBE N 08Apr2002
 POTCAR:    PAW_PBE Fe 06Sep2000

 POTCAR:    PAW_PBE C 08Apr2002
   VRHFIN =C: s2p2

   TITEL  = PAW_PBE C 08Apr2002
   POMASS =   12.011; ZVAL   =    4.000    mass and valenz
   ENMAX  =  400.000; ENMIN  =  300.000 eV

 POTCAR:    PAW_PBE N 08Apr2002
   VRHFIN =N: s2p3

   TITEL  = PAW_PBE N 08Apr2002
   POMASS =   14.001; ZVAL   =    5.000    mass and valenz
   ENMAX  =  400.000; ENMIN  =  300.000 eV

 POTCAR:    PAW_PBE Fe 06Sep2000
   VRHFIN =Fe:  d7 s1

   TITEL  = PAW_PBE Fe 06Sep2000
   POMASS =   55.847; ZVAL   =    8.000    mass and valenz
   ENMAX  =  267.882; ENMIN  =  200.911 eV

  PAW_PBE C 08Apr2002                   :
  PAW_PBE N 08Apr2002                   :
  PAW_PBE Fe 06Sep2000                  :

 POSCAR:  C  N Fe
  positions in cartesian coordinates
 exchange correlation table for  LEXCH =        8
   RHO(1)=    0.500       N(1)  =     2000
   RHO(2)=  100.500       N(2)  =     4000

 VTST: version 3.2, (02/03/18)

 CHAIN: initializing optimizer

 OPT: Using VASP Conjugate-Gradient optimizer
 CHAIN: Read ICHAIN            0

 POSCAR:  C  N Fe
  positions in cartesian coordinates

 ion  position               nearest neighbor table
   1  0.221  1.000  0.500-   3 1.41   4 1.43  20 1.43
   2  0.055  0.101  0.500-  34 1.42   3 1.43   7 1.44
   3  0.109  1.000  0.500-   1 1.41  18 1.43   2 1.43
   4  0.277  0.099  0.500-  22 1.41   5 1.42   1 1.43
   5  0.224  0.200  0.500-   4 1.42   7 1.43   8 1.44
   6  0.056  0.301  0.500-   7 1.43  38 1.44  11 1.44
   7  0.111  0.201  0.500-   5 1.43   6 1.43   2 1.44
   8  0.284  0.299  0.500-  51 1.39   9 1.44   5 1.44
   9  0.228  0.399  0.500-   8 1.44  11 1.44  12 1.45
  10  0.056  0.500  0.500-  15 1.44  11 1.44  42 1.45
  11  0.114  0.400  0.500-   6 1.44   9 1.44  10 1.44
  12  0.284  0.500  0.500-  53 1.33   9 1.45  13 1.45
  13  0.228  0.601  0.500-  16 1.44  15 1.44  12 1.45
  14  0.056  0.699  0.500-  19 1.43  46 1.44  15 1.44
  15  0.114  0.600  0.500-  14 1.44  13 1.44  10 1.44
  16  0.284  0.701  0.500-  55 1.39  13 1.44  17 1.44
  17  0.224  0.799  0.500-  20 1.42  19 1.43  16 1.44
  18  0.055  0.899  0.500-  50 1.42   3 1.43  19 1.44
  19  0.111  0.799  0.500-  17 1.43  14 1.43  18 1.44
  20  0.277  0.900  0.500-  28 1.41  17 1.42   1 1.43
  21  0.555  1.000  0.500-  23 1.40  24 1.42  30 1.42
  22  0.388  0.099  0.500-  26 1.41   4 1.41  23 1.42
  23  0.444  1.000  0.500-  21 1.40  28 1.42  22 1.42
  24  0.610  0.099  0.500-  25 1.41  32 1.41  21 1.42
  25  0.555  0.197  0.500-  52 1.38  24 1.41  26 1.42
  26  0.443  0.197  0.500-  51 1.38  22 1.41  25 1.42
  27  0.555  0.803  0.500-  56 1.38  30 1.41  29 1.42
  28  0.388  0.901  0.500-  29 1.41  20 1.41  23 1.42
  29  0.443  0.803  0.500-  55 1.38  28 1.41  27 1.42
  30  0.610  0.901  0.500-  27 1.41  48 1.41  21 1.42
  31  0.889  1.000  0.500-  33 1.41  50 1.43  34 1.43
  32  0.722  0.099  0.500-  24 1.41  37 1.42  33 1.43
  33  0.777  1.000  0.500-  31 1.41  48 1.43  32 1.43
  34  0.943  0.101  0.500-   2 1.42  31 1.43  35 1.44
  35  0.887  0.201  0.500-  37 1.43  38 1.43  34 1.44
  36  0.714  0.299  0.500-  52 1.39  41 1.44  37 1.44
  37  0.774  0.200  0.500-  32 1.42  35 1.43  36 1.44
  38  0.943  0.301  0.500-  35 1.43   6 1.44  39 1.44
  39  0.885  0.400  0.500-  38 1.44  41 1.44  42 1.44
  40  0.714  0.500  0.500-  54 1.33  45 1.45  41 1.45
  41  0.771  0.399  0.500-  36 1.44  39 1.44  40 1.45
  42  0.942  0.500  0.500-  39 1.44  43 1.44  10 1.45
  43  0.885  0.600  0.500-  46 1.44  45 1.44  42 1.44
  44  0.714  0.701  0.500-  56 1.39  45 1.44  49 1.44
  45  0.771  0.601  0.500-  44 1.44  43 1.44  40 1.45
  46  0.943  0.699  0.500-  47 1.43  14 1.44  43 1.44
  47  0.887  0.799  0.500-  49 1.43  46 1.43  50 1.44
  48  0.722  0.900  0.500-  30 1.41  49 1.42  33 1.43
  49  0.774  0.799  0.500-  48 1.42  47 1.43  44 1.44
  50  0.943  0.899  0.500-  18 1.42  31 1.43  47 1.44
  51  0.394  0.295  0.500-  26 1.38   8 1.39  57 1.95
  52  0.604  0.295  0.500-  25 1.38  36 1.39  57 1.95
  53  0.390  0.500  0.500-  12 1.33  58 1.79  57 1.79
  54  0.609  0.500  0.500-  40 1.33  57 1.79  58 1.79
  55  0.394  0.704  0.500-  29 1.38  16 1.39  58 1.95
  56  0.604  0.704  0.500-  27 1.38  44 1.39  58 1.95
  57  0.499  0.410  0.500-  54 1.79  53 1.79  51 1.95  52 1.95  58 2.25
  58  0.499  0.590  0.500-  53 1.79  54 1.79  56 1.95  55 1.95  57 2.25

  LATTYP: Found a triclinic cell.
 ALAT       =    17.7738872361
 B/A-ratio  =     0.7131350713
 C/A-ratio  =     1.8016122572
 COS(alpha) =     0.0000697067
 COS(beta)  =     0.5456335080
 COS(gamma) =     0.7130288636

  Lattice vectors:

 A1 = ( -12.6743036335, -12.4608625257,   0.0000551502)
 A2 = ( -12.6751821566,   0.0010261735,  -0.0019085722)
 A3 = (  -0.0012218429, -24.9206284824, -20.1084196778)

Analysis of symmetry for initial positions (statically):
 Subroutine PRICEL returns:
 Original cell was already a primitive cell.

 Routine SETGRP: Setting up the symmetry group for a
 triclinic supercell.

 Subroutine GETGRP returns: Found  1 space group operations
 (whereof  1 operations were pure point group operations)
 out of a pool of  2 trial point group operations.

The static configuration has the point symmetry C_1 .

Analysis of symmetry for dynamics (positions and initial velocities):
 Subroutine PRICEL returns:
 Original cell was already a primitive cell.

[...]

The dynamic configuration has the point symmetry C_1 .

Analysis of structural, dynamic, and magnetic symmetry:
 Subroutine PRICEL returns:
 Original cell was already a primitive cell.

 Routine SETGRP: Setting up the symmetry group for a
 triclinic supercell.

 Subroutine GETGRP returns: Found  1 space group operations
 (whereof  1 operations were pure point group operations)
 out of a pool of  2 trial point group operations.

The magnetic configuration has the point symmetry C_1 .

 Subroutine INISYM returns: Found  1 space group operations
 (whereof  1 operations are pure point group operations),
 and found     1 'primitive' translations

 KPOINTS: KPOINTS created by Atomic Simulation Env

Automatic generation of k-mesh.
Space group operators:
 irot       det(A)        alpha          n_x          n_y          n_z        tau_x        tau_y        tau_z
    1     1.000000     0.000001     1.000000     0.000000     0.000000     0.000000     0.000000     0.000000

 Subroutine IBZKPT returns following result:

 Found      2 irreducible k-points:

 Following reciprocal coordinates:
            Coordinates               Weight
  0.250000  0.250000 -0.000000      2.000000
 -0.250000  0.250000  0.000000      2.000000

 Following cartesian coordinates:
            Coordinates               Weight
  0.019725  0.020063  0.000000      2.000000
 -0.019722  0.020060  0.000006      2.000000

 Subroutine IBZKPT_HF returns following result:

 Found      4 k-points in 1st BZ
 the following      4 k-points will be used (e.g. in the exchange kernel)
 Following reciprocal coordinates:   # in IRBZ
  0.250000  0.250000 -0.000000    0.25000000   1 t-inv F
 -0.250000  0.250000  0.000000    0.25000000   2 t-inv F
 -0.250000 -0.250000  0.000000    0.25000000   1 t-inv T
  0.250000 -0.250000 -0.000000    0.25000000   2 t-inv T

 SYSTEM =  unknown system
 POSCAR =   C  N Fe

 Startparameter for this run:
   NWRITE =      2    write-flag & timer
   PREC   = accura    normal or accurate (medium, high low for compatibility)
   ISTART =      1    job   : 0-new  1-cont  2-samecut
   ICHARG =      0    charge: 1-file 2-atom 10-const
   ISPIN  =      2    spin polarized calculation?
   LNONCOLLINEAR =      F non collinear calculations
   LSORBIT =      F    spin-orbit coupling
   INIWAV =      1    electr: 0-lowe 1-rand  2-diag
   LASPH  =      T    aspherical Exc in radial PAW
   METAGGA=      F    non-selfconsistent MetaGGA calc.

 Electronic Relaxation 1
   ENCUT  =  500.0 eV  36.75 Ry    6.06 a.u.  23.11 22.72 36.67*2*pi/ulx,y,z
   ENINI  =  500.0     initial cutoff
   ENAUG  =  644.9 eV  augmentation charge cutoff
   NELM   =    250;   NELMIN=  2; NELMDL=  0     # of ELM steps
   EDIFF  = 0.1E-03   stopping-criterion for ELM
   LREAL  =      F    real-space projection
   NLSPLINE    = F    spline interpolate recip. space projectors
   LCOMPAT=      F    compatible to vasp.4.4
   GGA_COMPAT  = T    GGA compatible to vasp.4.4-vasp.4.6
   LMAXPAW     = -100 max onsite density
   LMAXMIX     =    2 max onsite mixed and CHGCAR
   VOSKOWN=      0    Vosko Wilk Nusair interpolation
   ROPT   =    0.00000   0.00000   0.00000
 Ionic relaxation
   EDIFFG = -.3E-01   stopping-criterion for IOM
   NSW    =      0    number of steps for IOM
   NBLOCK =      1;   KBLOCK =      1    inner block; outer block
   IBRION =     -1    ionic relax: 0-MD 1-quasi-New 2-CG
   NFREE  =      1    steps in history (QN), initial steepest desc. (CG)
   ISIF   =      2    stress and relaxation
   IWAVPR =     10    prediction:  0-non 1-charg 2-wave 3-comb
   ISYM   =      3    0-nonsym 1-usesym 2-fastsym
   LCORR  =      T    Harris-Foulkes like correction to forces

   POTIM  = 0.5000    time-step for ionic-motion
   TEIN   =    0.0    initial temperature
   TEBEG  =    0.0;   TEEND  =   0.0 temperature during run
   SMASS  =  -3.00    Nose mass-parameter (am)
   estimated Nose-frequenzy (Omega)   =  0.10E-29 period in steps =****** mass=  -0.367E-26a.u.
   SCALEE = 1.0000    scale energy and forces
   NPACO  =    256;   APACO  = 16.0  distance and # of slots for P.C.
   PSTRESS=    0.0 pullay stress

  Mass of Ions in am
   POMASS =  12.01 14.00 55.85
  Ionic Valenz
   ZVAL   =   4.00  5.00  8.00
  Atomic Wigner-Seitz radii
  virtual crystal weights
   VCA    =   1.00  1.00  1.00
   NELECT =     246.0000    total number of electrons
   NUPDOWN=      -1.0000    fix difference up-down

 DOS related values:
   EMIN   =  10.00;   EMAX   =-10.00  energy-range for DOS
   EFERMI =   0.00
   ISMEAR =     0;   SIGMA  =   0.10  broadening in eV -4-tet -1-fermi 0-gaus

 Electronic relaxation 2 (details)
   IALGO  =     53    algorithm
   LDIAG  =      T    sub-space diagonalisation (order eigenvalues)
   LSUBROT=      F    optimize rotation matrix (better conditioning)
   TURBO    =      0    0=normal 1=particle mesh
   IRESTART =      0    0=no restart 2=restart with 2 vectors
   NREBOOT  =      0    no. of reboots
   NMIN     =      0    reboot dimension
   EREF     =   0.00    reference energy to select bands
   IMIX   =      4    mixing-type and parameters
     AMIX     =   0.40;   BMIX     =  1.00
     AMIX_MAG =   1.60;   BMIX_MAG =  1.00
     AMIN     =   0.10
     WC   =   100.;   INIMIX=   1;  MIXPRE=   1;  MAXMIX= -45

 Intra band minimization:
   WEIMIN = 0.0000     energy-eigenvalue tresh-hold
   EBREAK =  0.16E-06  absolut break condition
   DEPER  =   0.30     relativ break condition

   TIME   =   0.20     timestep for ELM

  volume/ion in A,a.u.               =      54.77       369.63
  Fermi-wavevector in a.u.,A,eV,Ry     =   0.697782  1.318616  6.624668  0.486899
[...]
   35        0.864   1.758   0.000   2.622
   36        0.853   1.710   0.000   2.563
   37        0.864   1.766   0.000   2.631
   38        0.862   1.759   0.000   2.621
   39        0.859   1.740   0.000   2.599
   40        0.860   1.735   0.000   2.596
   41        0.854   1.758   0.000   2.612
   42        0.856   1.741   0.000   2.596
   43        0.859   1.739   0.000   2.599
   44        0.853   1.709   0.000   2.562
   45        0.855   1.757   0.000   2.612
   46        0.862   1.760   0.000   2.622
   47        0.864   1.758   0.000   2.622
   48        0.871   1.780   0.000   2.651
   49        0.864   1.767   0.000   2.631
   50        0.865   1.764   0.000   2.629
   51        1.230   2.653   0.000   3.882
   52        1.230   2.653   0.000   3.883
   53        1.255   2.601   0.000   3.857
   54        1.255   2.602   0.000   3.857
   55        1.228   2.662   0.000   3.889
   56        1.227   2.662   0.000   3.889
   57        0.471   0.741   6.490   7.702
   58        0.516   0.754   6.373   7.643
tot         51.592 105.443  12.863 169.898

 magnetization (x)

[...]

  FORCE on cell =-STRESS in cart. coord.  units (eV):
  Direction    XX          YY          ZZ          XY          YZ          ZX
  Alpha Z   102.90371   102.90371   102.90371
  Ewald   49497.09126 49288.41994-58096.24288     0.38649   -16.67891    16.23042
  Hartree 48728.94689 48735.28968-48158.16543     0.13309   -14.92464    13.04288
  E(xc)    -721.43825  -721.86778  -736.32158    -0.00216    -0.00296     0.17307
  Local  ************************103093.81797    -0.48825    31.51642   -26.85093
  n-local  -182.84235  -187.10820  -172.57512    -0.00275    -0.00131    -1.01522
  augment    49.28881    48.90493    65.22966    -0.00527    -0.00961    -1.22355
  Kinetic  3640.93899  3688.61509  4216.68422     0.14600     0.09696    -1.24817
  Fock     -324.18537  -323.65782  -315.75893     0.01081     0.01641     0.95016
  Total     -44.27629   -41.26700    -0.42839     0.17798     0.01236     0.05864
  in kB     -22.32960   -20.81194    -0.21604     0.08976     0.00624     0.02957

 VOLUME and BASIS-vectors are now :
  energy-cutoff  :      500.00
  volume of cell :     3176.88
      direct lattice vectors                 reciprocal lattice vectors
    12.675182157 -0.001026173  0.001908572     0.078894332  0.000005560 -0.000011684
    -0.000878523 12.461888699 -0.001963722     0.000006495  0.080244661  0.000012563
     0.002978889 -0.003148916 20.112347123    -0.000007486  0.000007834  0.049720703

  length of vectors
    12.675182342 12.461888885 20.112347590     0.078894333  0.080244662  0.049720705

 FORCES acting on ions:
    Electron-Ion                     Ewald-Force                    Non-Local-Force
   0.812E+01 -.604E-01 -.139E+00   -.843E+01 -.254E-01 0.141E+00   0.264E+00 -.877E-02 -.160E-03
   -.353E+00 -.173E+01 -.189E+00   0.273E+00 0.180E+01 0.190E+00   0.150E-01 -.779E-01 -.115E-02
   0.118E+02 -.234E-01 -.407E-01   -.119E+02 0.240E-01 0.398E-01   0.158E+00 -.411E-02 0.176E-02
   0.187E+02 0.645E+01 -.338E+00   -.190E+02 -.659E+01 0.340E+00   0.364E+00 0.215E+00 -.344E-02
   0.190E+02 -.236E+00 -.267E+00   -.194E+02 0.152E+00 0.263E+00   0.334E+00 -.714E-02 -.352E-02
   0.515E+01 -.261E+01 -.314E+00   -.524E+01 0.290E+01 0.314E+00   0.821E-01 -.237E+00 0.681E-04
   0.956E+01 0.883E+00 -.283E+00   -.985E+01 -.633E+00 0.283E+00   0.322E+00 -.242E+00 0.406E-04
   0.483E+02 0.304E+00 0.996E-01   -.517E+02 0.253E+00 -.690E-01   0.360E+01 -.509E+00 -.264E-01
   0.268E+02 0.107E+01 -.399E-01   -.271E+02 -.106E+01 0.386E-01   0.302E+00 -.203E-01 0.138E-01
   0.628E+01 0.247E-01 -.309E+00   -.650E+01 -.454E-01 0.307E+00   0.164E+00 -.490E-02 0.114E-02
   0.962E+01 -.220E+01 -.337E+00   -.973E+01 0.239E+01 0.337E+00   0.905E-01 -.158E+00 -.148E-02
   0.714E+02 -.498E-01 0.217E+00   -.750E+02 0.795E-01 -.134E+00   0.398E+01 0.759E-01 -.935E-01
   0.268E+02 -.839E+00 -.418E+00   -.272E+02 0.912E+00 0.422E+00   0.232E+00 0.963E-01 -.127E-01
   0.509E+01 0.264E+01 -.240E+00   -.520E+01 -.291E+01 0.242E+00   0.105E+00 0.233E+00 -.177E-03
   0.969E+01 0.214E+01 -.393E+00   -.976E+01 -.227E+01 0.388E+00   0.903E-01 0.152E+00 0.205E-02
   0.482E+02 -.447E+00 -.423E+00   -.518E+02 -.119E+00 0.433E+00   0.352E+01 0.461E+00 -.109E-01
   0.190E+02 0.230E+00 -.212E+00   -.195E+02 -.230E+00 0.210E+00   0.347E+00 -.335E-01 0.279E-03
   -.347E+00 0.176E+01 0.177E-02   0.277E+00 -.183E+01 -.128E-02   0.696E-02 0.816E-01 -.842E-04
   0.962E+01 -.909E+00 -.861E-01   -.988E+01 0.608E+00 0.851E-01   0.311E+00 0.253E+00 0.218E-02
   0.186E+02 -.647E+01 -.740E-01   -.189E+02 0.670E+01 0.736E-01   0.357E+00 -.154E+00 0.296E-02
   -.735E+01 0.299E-01 -.508E+00   0.695E+01 -.238E-01 0.510E+00   0.299E+00 0.476E-02 -.336E-02
   0.905E+01 0.139E+02 -.476E+00   -.910E+01 -.145E+02 0.472E+00   0.433E-01 0.528E+00 -.345E-02
   0.736E+01 -.575E-01 -.501E+00   -.697E+01 0.708E-01 0.500E+00   -.301E+00 0.138E-02 0.130E-02
   -.905E+01 0.139E+02 -.535E+00   0.909E+01 -.144E+02 0.542E+00   -.337E-01 0.534E+00 -.590E-02
   -.598E+00 0.420E+02 -.123E+00   -.665E+00 -.447E+02 0.134E+00   0.143E+01 0.287E+01 0.170E-01
   0.640E+00 0.420E+02 -.347E-01   0.622E+00 -.448E+02 0.359E-01   -.143E+01 0.287E+01 -.288E-01
   -.845E+00 -.418E+02 -.447E+00   -.618E+00 0.448E+02 0.448E+00   0.134E+01 -.284E+01 0.560E-02
   0.911E+01 -.139E+02 -.303E+00   -.912E+01 0.144E+02 0.302E+00   0.784E-01 -.591E+00 0.135E-02
   0.846E+00 -.418E+02 -.399E+00   0.617E+00 0.448E+02 0.405E+00   -.133E+01 -.284E+01 -.124E-01
   -.910E+01 -.139E+02 -.320E+00   0.911E+01 0.145E+02 0.322E+00   -.839E-01 -.587E+00 0.588E-03
   -.118E+02 -.307E-01 -.209E-01   0.119E+02 0.303E-01 0.209E-01   -.155E+00 -.391E-03 0.128E-02
   -.186E+02 0.649E+01 -.393E+00   0.189E+02 -.664E+01 0.388E+00   -.355E+00 0.208E+00 0.122E-02
   -.810E+01 -.877E-01 -.131E+00   0.840E+01 0.553E-02 0.131E+00   -.263E+00 -.140E-01 0.647E-03
   0.355E+00 -.169E+01 -.173E+00   -.276E+00 0.177E+01 0.174E+00   -.106E-01 -.736E-01 -.567E-03
   -.956E+01 0.841E+00 -.276E+00   0.986E+01 -.589E+00 0.276E+00   -.327E+00 -.246E+00 -.277E-04
   -.483E+02 0.328E+00 -.701E-01   0.517E+02 0.231E+00 0.470E-01   -.360E+01 -.504E+00 0.165E-01
   -.191E+02 -.209E+00 -.312E+00   0.195E+02 0.125E+00 0.317E+00   -.339E+00 -.249E-02 0.153E-03
   -.514E+01 -.262E+01 -.321E+00   0.524E+01 0.291E+01 0.320E+00   -.956E-01 -.239E+00 0.167E-02
   -.962E+01 -.213E+01 -.363E+00   0.973E+01 0.232E+01 0.364E+00   -.936E-01 -.157E+00 -.379E-02
   -.715E+02 0.133E+00 0.236E-01   0.750E+02 -.104E+00 -.672E-01   -.398E+01 0.907E-01 0.498E-01
   -.268E+02 0.978E+00 -.104E+00   0.271E+02 -.966E+00 0.106E+00   -.307E+00 -.156E-01 -.187E-01
   -.627E+01 -.863E-01 -.324E+00   0.649E+01 0.657E-01 0.322E+00   -.169E+00 -.445E-02 0.311E-02
   -.968E+01 0.227E+01 -.407E+00   0.975E+01 -.240E+01 0.411E+00   -.880E-01 0.154E+00 -.459E-02
   -.482E+02 -.370E+00 -.469E+00   0.518E+02 -.197E+00 0.458E+00   -.351E+01 0.463E+00 0.282E-02
   -.268E+02 -.979E+00 -.445E+00   0.272E+02 0.105E+01 0.447E+00   -.226E+00 0.103E+00 0.212E-02
   -.513E+01 0.260E+01 -.253E+00   0.524E+01 -.288E+01 0.252E+00   -.937E-01 0.233E+00 0.680E-03
   -.963E+01 -.930E+00 -.856E-01   0.989E+01 0.633E+00 0.850E-01   -.307E+00 0.256E+00 0.155E-02
   -.186E+02 -.643E+01 -.763E-01   0.190E+02 0.666E+01 0.747E-01   -.360E+00 -.157E+00 0.435E-02
   -.190E+02 0.180E+00 -.218E+00   0.194E+02 -.179E+00 0.221E+00   -.344E+00 -.290E-01 -.122E-02
   0.348E+00 0.177E+01 0.141E-01   -.279E+00 -.184E+01 -.135E-01   -.382E-02 0.861E-01 0.926E-04
   0.232E+02 -.181E+02 0.106E+01   -.133E+02 0.352E+02 -.943E+00   -.951E+01 -.164E+02 -.953E-01
   -.230E+02 -.182E+02 0.473E+00   0.132E+02 0.353E+02 -.723E+00   0.951E+01 -.164E+02 0.224E+00
   0.689E+02 -.112E+01 0.274E+01   -.572E+02 -.125E+00 -.258E+01   -.119E+02 0.762E+00 -.162E+00
   -.688E+02 -.125E+01 0.252E+01   0.571E+02 0.293E-01 -.291E+01   0.119E+02 0.730E+00 0.386E+00
   0.227E+02 0.185E+02 -.434E+00   -.133E+02 -.353E+02 0.483E+00   -.915E+01 0.157E+02 -.598E-01
   -.228E+02 0.183E+02 -.598E+00   0.134E+02 -.350E+02 0.546E+00   0.915E+01 0.157E+02 0.577E-01
   -.178E-01 0.933E+02 0.388E+01   0.165E-01 -.985E+02 -.386E+01   -.446E-02 0.335E+01 -.115E-01
   0.126E+00 -.933E+02 0.196E+01   -.122E+00 0.981E+02 -.192E+01   -.581E-02 -.216E+01 -.229E-01
   0.839E-02 -.166E+01 -.241E+00   -.274E-12 -.426E-13 -.222E-14   -.722E-02 0.152E+01 0.216E+00

 POSITION                                       TOTAL-FORCE (eV/Angst)
      2.80294     12.45856     10.05478        -0.041418     -0.095289      0.001581
      0.70214      1.25495     10.05640        -0.073077     -0.013756     -0.000071
      1.38827     12.45895     10.05441         0.069047     -0.003774      0.000939
      3.50805      1.23621     10.05678         0.100490      0.092667     -0.002215
      2.84341      2.49542     10.05594        -0.059802     -0.098593     -0.007538
      0.70950      3.74954     10.05614        -0.010697      0.035063      0.000322
      1.41403      2.50520     10.05633         0.048130     -0.001044     -0.000702
      3.60435      3.72185     10.05386         0.390850      0.019158      0.002915
      2.88646      4.96967     10.05403        -0.030395     -0.002447      0.013129
      0.71442      6.22783     10.05571        -0.044207     -0.025848     -0.000538
      1.44514      4.98300     10.05566        -0.016187      0.026642     -0.001428
      3.60643      6.22809     10.05228         0.715837      0.110691     -0.015624
      2.88549      7.48613     10.05502        -0.127068      0.173274     -0.009693
      0.70795      8.70645     10.05534         0.007786     -0.024081      0.002039
      1.44418      7.47293     10.05567         0.015414      0.029271     -0.002549
      3.60309      8.73367     10.05535         0.139493     -0.079438     -0.002039
      2.84216      9.96021     10.05520        -0.073824     -0.028694     -0.001173
      0.70096     11.20135     10.05437        -0.071287      0.017364      0.000410
      1.41272      9.95090     10.05488         0.061795     -0.037153      0.001295
      3.50713     11.21882     10.05501         0.020215      0.062104      0.002771
      7.03058     12.45769     10.05629        -0.087813      0.011250     -0.002222
      4.92163      1.22628     10.05699        -0.003332     -0.016275     -0.006968
      5.62577     12.45800     10.05601         0.084466      0.014746      0.000693
      7.73628      1.22575     10.05766         0.013948     -0.005926      0.001103
      7.04000      2.45078     10.05514         0.239936      0.252351      0.028359
      5.61836      2.45105     10.05465        -0.241003      0.251778     -0.029146
      7.03889     10.00288     10.05600        -0.054351     -0.011475      0.006428
      4.92078     11.22818     10.05568         0.072329     -0.067577      0.001069
      5.61718     10.00314     10.05569         0.057950     -0.012691     -0.007283
      7.73556     11.22766     10.05619        -0.079570     -0.062188      0.002403
     11.26783     12.45789     10.05587        -0.066516     -0.000799      0.001395
      9.14987      1.23569     10.05784        -0.089746      0.081466     -0.004104
      9.85323     12.45787     10.05588         0.038618     -0.097182      0.000302
     11.95600      1.25379     10.05808         0.076513     -0.006961     -0.000122
     11.24458      2.50427     10.05786        -0.049170     -0.005120     -0.000539
      9.05433      3.72072     10.05508        -0.388869      0.027197     -0.005909
      9.81516      2.49440     10.05723         0.056898     -0.093564      0.005241
     11.94948      3.74854     10.05788        -0.004493      0.032866     -0.000048
     11.21326      4.98187     10.05725         0.015658      0.027362     -0.003324
      9.05115      6.22661     10.05314        -0.709217      0.125948      0.008132
      9.77193      4.96850     10.05530         0.025283     -0.003117     -0.017129
     11.94337      6.22682     10.05746         0.037190     -0.025504      0.000712
     11.21259      7.47174     10.05721        -0.016857      0.027582     -0.000624
      9.05301      8.73257     10.05623        -0.136201     -0.077332     -0.007732
      9.77117      7.48494     10.05612         0.134356      0.176405      0.004095
     11.94797      8.70539     10.05706         0.007061     -0.026984     -0.000710
     11.24318      9.94967     10.05637        -0.060982     -0.030097      0.001098
      9.14911     11.21811     10.05590        -0.019812      0.057211      0.003026
      9.81383      9.95910     10.05630         0.074252     -0.022845      0.000989
     11.95489     11.20016     10.05605         0.074184      0.021940      0.000759
      4.99573      3.67733     10.05184        -0.464646     -0.750903      0.011349
      7.66324      3.67677     10.05272         0.447389     -0.750614     -0.006256
      4.93974      6.22728     10.04755        -1.281618     -0.415862     -0.014668
      7.71803      6.22713     10.04744         1.274230     -0.427641      0.028568
      4.99433      8.77696     10.05487        -0.524359      0.336455     -0.015594
      7.66161      8.77651     10.05539         0.534070      0.335254      0.010690
      6.32915      5.10343     10.04707        -0.006575     -0.278637      0.017333
      6.32872      7.35148     10.04978        -0.000296      1.253369      0.006802
    total drift:                                0.000712     -0.001986     -0.000041

  FREE ENERGIE OF THE ION-ELECTRON SYSTEM (eV)
  free  energy   TOTEN  =      -611.61953052 eV

  energy  without entropy=     -611.61929232  energy(sigma->0) =     -611.61941142

 stress matrix after NEB project (eV)
    -44.27629      0.17798      0.05864
      0.17798    -41.26700      0.01245
      0.05836      0.01236     -0.42839
  FORCES: max atom, RMS     1.347480    0.405678
  FORCE total and by dimension    3.089552    1.281618
  Stress total and by dimension   60.527750   44.276285
 writing wavefunctions
 vacuum level on the upper side and lower side of the slab         1.480         1.480

 total charge

[...]

 magnetization (x)

# of ion       s       p       d       tot
    1        0.000   0.000   0.000   0.001
    2        0.000  -0.002   0.000  -0.002
    3       -0.000  -0.007   0.000  -0.008
    4       -0.001  -0.019   0.000  -0.021
    5        0.000   0.002   0.000   0.002
    6       -0.000  -0.007   0.000  -0.007
    7       -0.000  -0.006   0.000  -0.006
    8       -0.000  -0.008   0.000  -0.008
    9       -0.001  -0.012   0.000  -0.013
   10        0.000  -0.002   0.000  -0.002
   11       -0.001  -0.011   0.000  -0.011
   12       -0.000  -0.006   0.000  -0.006
   13       -0.001  -0.009   0.000  -0.011
   14       -0.000  -0.010   0.000  -0.010
   15       -0.000  -0.008   0.000  -0.009
   16       -0.000  -0.007   0.000  -0.007
   17       -0.000  -0.003   0.000  -0.003
   18        0.000  -0.001   0.000  -0.001
   19       -0.000  -0.004   0.000  -0.004
   20       -0.001  -0.021   0.000  -0.022
   21       -0.000  -0.002   0.000  -0.002
   22        0.000   0.003   0.000   0.003
   23       -0.000  -0.002   0.000  -0.002
   24        0.000   0.003   0.000   0.003
   25       -0.000  -0.013   0.000  -0.013
   26       -0.000  -0.013   0.000  -0.013
   27       -0.000  -0.015   0.000  -0.016
   28        0.000   0.004   0.000   0.004
   29       -0.000  -0.015   0.000  -0.016
   30        0.000   0.004   0.000   0.004
   31       -0.000  -0.007   0.000  -0.008
   32       -0.001  -0.019   0.000  -0.021
   33        0.000   0.000   0.000   0.001
   34        0.000  -0.002   0.000  -0.002
   35       -0.000  -0.006   0.000  -0.006
   36       -0.000  -0.008   0.000  -0.008
   37        0.000   0.002   0.000   0.002
   38       -0.000  -0.007   0.000  -0.007
   39       -0.001  -0.011   0.000  -0.011
   40       -0.000  -0.006   0.000  -0.006
   41       -0.001  -0.011   0.000  -0.013
   42        0.000  -0.002   0.000  -0.002
   43       -0.000  -0.008   0.000  -0.009
   44       -0.000  -0.007   0.000  -0.007
   45       -0.001  -0.009   0.000  -0.010
   46       -0.000  -0.009   0.000  -0.010
   47       -0.000  -0.004   0.000  -0.005
   48       -0.001  -0.021   0.000  -0.022
   49       -0.000  -0.003   0.000  -0.003
   50        0.000  -0.001   0.000  -0.001
   51       -0.005  -0.041   0.000  -0.046
   52       -0.005  -0.041   0.000  -0.046
   53       -0.010  -0.118   0.000  -0.128
   54       -0.010  -0.118   0.000  -0.127
   55       -0.007  -0.073   0.000  -0.080
   56       -0.007  -0.073   0.000  -0.080
   57        0.032   0.003   1.302   1.337
   58        0.002   0.008   1.806   1.816
tot         -0.026  -0.779   3.108   2.303