 vasp.5.4.4.18Apr17-6-g9f103f2a35 (build Feb 25 2019 10:51:38) complex

 executed on             LinuxIFC date 2021.08.09  05:23:23

 INCAR:
 POTCAR:    PAW_PBE C 08Apr2002
 POTCAR:    PAW_PBE N 08Apr2002
 POTCAR:    PAW_PBE Ni 02Aug2007
 POTCAR:    PAW_PBE Fe 06Sep2000

 POTCAR:    PAW_PBE C 08Apr2002
   VRHFIN =C: s2p2

   TITEL  = PAW_PBE C 08Apr2002
   POMASS =   12.011; ZVAL   =    4.000    mass and valenz
   ENMAX  =  400.000; ENMIN  =  300.000 eV

 POTCAR:    PAW_PBE N 08Apr2002
   VRHFIN =N: s2p3

   TITEL  = PAW_PBE N 08Apr2002
   POMASS =   14.001; ZVAL   =    5.000    mass and valenz
   ENMAX  =  400.000; ENMIN  =  300.000 eV

 POTCAR:    PAW_PBE Ni 02Aug2007
   VRHFIN =Ni:

   TITEL  = PAW_PBE Ni 02Aug2007
   POMASS =   58.690; ZVAL   =   10.000    mass and valenz
   ENMAX  =  269.532; ENMIN  =  202.149 eV

 POTCAR:    PAW_PBE Fe 06Sep2000
   VRHFIN =Fe:  d7 s1

   TITEL  = PAW_PBE Fe 06Sep2000
   POMASS =   55.847; ZVAL   =    8.000    mass and valenz
   ENMAX  =  267.882; ENMIN  =  200.911 eV

  PAW_PBE C 08Apr2002                   :
  PAW_PBE N 08Apr2002                   :
  PAW_PBE Ni 02Aug2007                  :
  PAW_PBE Fe 06Sep2000                  :

 POSCAR:  C  N Ni Fe
  positions in cartesian coordinates
 exchange correlation table for  LEXCH =        8
   RHO(1)=    0.500       N(1)  =     2000
   RHO(2)=  100.500       N(2)  =     4000

 VTST: version 3.2, (02/03/18)

 CHAIN: initializing optimizer

 OPT: Using VASP Conjugate-Gradient optimizer
 CHAIN: Read ICHAIN            0

 POSCAR:  C  N Ni Fe
  positions in cartesian coordinates

 ion  position               nearest neighbor table
   1  0.227  0.003  0.500-  18 1.44   4 1.46   3 1.46
   2  0.057  0.100  0.500-   7 1.43   3 1.43  33 1.45
   3  0.114  0.001  0.500-   2 1.43  16 1.43   1 1.46
   4  0.282  0.106  0.500-   5 1.46   1 1.46  20 1.46
   5  0.222  0.205  0.500-  53 1.37   7 1.45   4 1.46
   6  0.051  0.299  0.500-  10 1.41  37 1.43   7 1.43
   7  0.111  0.201  0.500-   2 1.43   6 1.43   5 1.45
   8  0.210  0.397  0.500-  53 1.36  10 1.40  11 1.42
   9  0.049  0.500  0.500-  41 1.41  14 1.42  10 1.42
  10  0.103  0.399  0.500-   8 1.40   6 1.41   9 1.42
  11  0.265  0.497  0.499-  55 1.33   8 1.42  12 1.43
  12  0.212  0.599  0.500-  14 1.41  50 1.42  11 1.43
  13  0.053  0.701  0.500-  14 1.41  45 1.43  17 1.44
  14  0.104  0.600  0.500-  12 1.41  13 1.41   9 1.42
  15  0.223  0.798  0.500-  50 1.43  17 1.45  18 1.46
  16  0.058  0.901  0.500-  17 1.43   3 1.43  49 1.45
  17  0.112  0.800  0.500-  16 1.43  13 1.44  15 1.45
  18  0.280  0.900  0.500-   1 1.44  28 1.46  15 1.46
  19  0.557  0.999  0.500-  22 1.42  29 1.43  21 1.44
  20  0.395  0.106  0.500-  54 1.40  21 1.46   4 1.46
  21  0.447  0.001  0.500-  19 1.44  28 1.45  20 1.46
  22  0.614  0.099  0.500-  23 1.41  19 1.42  31 1.44
  23  0.558  0.197  0.500-  54 1.37  22 1.41  24 1.45
  24  0.612  0.301  0.500-  51 1.42  35 1.43  23 1.45
  25  0.609  0.501  0.500-  56 1.40  51 1.45  39 1.45
  26  0.616  0.698  0.500-  56 1.37  43 1.42  27 1.46
  27  0.558  0.800  0.500-  52 1.42  29 1.42  26 1.46
  28  0.392  0.898  0.500-  52 1.44  21 1.45  18 1.46
  29  0.614  0.900  0.500-  27 1.42  19 1.43  47 1.44
  30  0.891  1.000  0.500-  33 1.42  49 1.42  32 1.44
  31  0.724  0.099  0.500-  36 1.42  32 1.42  22 1.44
  32  0.780  1.000  0.500-  47 1.42  31 1.42  30 1.44
  33  0.946  0.100  0.500-  30 1.42  34 1.43   2 1.45
  34  0.888  0.199  0.500-  37 1.41  36 1.43  33 1.43
  35  0.722  0.299  0.500-  40 1.42  36 1.43  24 1.43
  36  0.778  0.199  0.500-  31 1.42  35 1.43  34 1.43
  37  0.941  0.299  0.500-  34 1.41   6 1.43  38 1.43
  38  0.886  0.399  0.500-  41 1.42  37 1.43  40 1.43
  39  0.720  0.500  0.500-  40 1.43  44 1.43  25 1.45
  40  0.776  0.400  0.500-  35 1.42  39 1.43  38 1.43
  41  0.941  0.500  0.500-   9 1.41  42 1.42  38 1.42
  42  0.887  0.600  0.500-  41 1.42  44 1.43  45 1.43
  43  0.725  0.700  0.500-  44 1.42  26 1.42  48 1.43
  44  0.777  0.599  0.500-  43 1.42  42 1.43  39 1.43
  45  0.943  0.701  0.500-  46 1.42  13 1.43  42 1.43
  46  0.889  0.801  0.500-  45 1.42  48 1.43  49 1.43
  47  0.724  0.900  0.500-  48 1.42  32 1.42  29 1.44
  48  0.780  0.801  0.500-  47 1.42  43 1.43  46 1.43
  49  0.947  0.901  0.500-  30 1.42  46 1.43  16 1.45
  50  0.273  0.695  0.500-  12 1.42  15 1.43  58 1.92
  51  0.553  0.398  0.499-  24 1.42  25 1.45  57 1.91
  52  0.449  0.799  0.500-  27 1.42  28 1.44  58 1.94
  53  0.269  0.305  0.499-   8 1.36   5 1.37  57 1.96
  54  0.453  0.201  0.499-  23 1.37  20 1.40  57 1.94
  55  0.368  0.495  0.499-  11 1.33  57 1.84  58 1.94
  56  0.561  0.603  0.499-  26 1.37  25 1.40  58 2.01
  57  0.413  0.353  0.499-  55 1.84  51 1.91  54 1.94  53 1.96
  58  0.413  0.646  0.499-  50 1.92  55 1.94  52 1.94  56 2.01

  LATTYP: Found a triclinic cell.
 ALAT       =    13.0179540525
 B/A-ratio  =     1.8234317464
 C/A-ratio  =     0.9445643999
 COS(alpha) =     0.0006757244
 COS(beta)  =     0.0013674243
 COS(gamma) =     0.5485924201

  Lattice vectors:

 A1 = (  13.0179465013,  -0.0140215187,  -0.0000043504)
 A2 = (  13.0221311007,  -0.0127655424,  19.8465552818)
 A3 = (   0.0035700286, -12.2962954354,  -0.0003137477)

Analysis of symmetry for initial positions (statically):
 Subroutine PRICEL returns:
 Original cell was already a primitive cell.

 Routine SETGRP: Setting up the symmetry group for a
 triclinic supercell.

 Subroutine GETGRP returns: Found  1 space group operations
 (whereof  1 operations were pure point group operations)
 out of a pool of  2 trial point group operations.

The static configuration has the point symmetry C_1 .

Analysis of symmetry for dynamics (positions and initial velocities):
 Subroutine PRICEL returns:
 Original cell was already a primitive cell.

[...]

The dynamic configuration has the point symmetry C_1 .

Analysis of structural, dynamic, and magnetic symmetry:
 Subroutine PRICEL returns:
 Original cell was already a primitive cell.

 Routine SETGRP: Setting up the symmetry group for a
 triclinic supercell.

 Subroutine GETGRP returns: Found  1 space group operations
 (whereof  1 operations were pure point group operations)
 out of a pool of  2 trial point group operations.

The magnetic configuration has the point symmetry C_1 .

 Subroutine INISYM returns: Found  1 space group operations
 (whereof  1 operations are pure point group operations),
 and found     1 'primitive' translations

 KPOINTS: KPOINTS created by Atomic Simulation Env

Automatic generation of k-mesh.
Space group operators:
 irot       det(A)        alpha          n_x          n_y          n_z        tau_x        tau_y        tau_z
    1     1.000000     0.000000     1.000000     0.000000     0.000000     0.000000     0.000000     0.000000

 Subroutine IBZKPT returns following result:

 Found      2 irreducible k-points:

 Following reciprocal coordinates:
            Coordinates               Weight
  0.250000  0.250000  0.000000      2.000000
 -0.250000  0.250000  0.000000      2.000000

 Following cartesian coordinates:
            Coordinates               Weight
  0.019226  0.020337 -0.000005      2.000000
 -0.019182  0.020326  0.000003      2.000000

 Subroutine IBZKPT_HF returns following result:

 Found      4 k-points in 1st BZ
 the following      4 k-points will be used (e.g. in the exchange kernel)
 Following reciprocal coordinates:   # in IRBZ
  0.250000  0.250000  0.000000    0.25000000   1 t-inv F
 -0.250000  0.250000  0.000000    0.25000000   2 t-inv F
 -0.250000 -0.250000  0.000000    0.25000000   1 t-inv T
  0.250000 -0.250000  0.000000    0.25000000   2 t-inv T

 SYSTEM =  unknown system
 POSCAR =   C  N Ni Fe

 Startparameter for this run:
   NWRITE =      2    write-flag & timer
   PREC   = accura    normal or accurate (medium, high low for compatibility)
   ISTART =      1    job   : 0-new  1-cont  2-samecut
   ICHARG =      0    charge: 1-file 2-atom 10-const
   ISPIN  =      2    spin polarized calculation?
   LNONCOLLINEAR =      F non collinear calculations
   LSORBIT =      F    spin-orbit coupling
   INIWAV =      1    electr: 0-lowe 1-rand  2-diag
   LASPH  =      T    aspherical Exc in radial PAW
   METAGGA=      F    non-selfconsistent MetaGGA calc.

 Electronic Relaxation 1
   ENCUT  =  500.0 eV  36.75 Ry    6.06 a.u.  23.73 22.42 36.18*2*pi/ulx,y,z
   ENINI  =  500.0     initial cutoff
   ENAUG  =  644.9 eV  augmentation charge cutoff
   NELM   =    250;   NELMIN=  2; NELMDL=  0     # of ELM steps
   EDIFF  = 0.1E-03   stopping-criterion for ELM
   LREAL  =      F    real-space projection
   NLSPLINE    = F    spline interpolate recip. space projectors
   LCOMPAT=      F    compatible to vasp.4.4
   GGA_COMPAT  = T    GGA compatible to vasp.4.4-vasp.4.6
   LMAXPAW     = -100 max onsite density
   LMAXMIX     =    2 max onsite mixed and CHGCAR
   VOSKOWN=      0    Vosko Wilk Nusair interpolation
   ROPT   =    0.00000   0.00000   0.00000   0.00000
 Ionic relaxation
   EDIFFG = -.3E-01   stopping-criterion for IOM
   NSW    =      0    number of steps for IOM
   NBLOCK =      1;   KBLOCK =      1    inner block; outer block
   IBRION =     -1    ionic relax: 0-MD 1-quasi-New 2-CG
   NFREE  =      1    steps in history (QN), initial steepest desc. (CG)
   ISIF   =      2    stress and relaxation
   IWAVPR =     10    prediction:  0-non 1-charg 2-wave 3-comb
   ISYM   =      3    0-nonsym 1-usesym 2-fastsym
   LCORR  =      T    Harris-Foulkes like correction to forces

   POTIM  = 0.5000    time-step for ionic-motion
   TEIN   =    0.0    initial temperature
   TEBEG  =    0.0;   TEEND  =   0.0 temperature during run
   SMASS  =  -3.00    Nose mass-parameter (am)
   estimated Nose-frequenzy (Omega)   =  0.10E-29 period in steps =****** mass=  -0.387E-26a.u.
   SCALEE = 1.0000    scale energy and forces
   NPACO  =    256;   APACO  = 16.0  distance and # of slots for P.C.
   PSTRESS=    0.0 pullay stress

  Mass of Ions in am
   POMASS =  12.01 14.00 58.69 55.85
  Ionic Valenz
   ZVAL   =   4.00  5.00 10.00  8.00
  Atomic Wigner-Seitz radii
  virtual crystal weights
   VCA    =   1.00  1.00  1.00  1.00
   NELECT =     246.0000    total number of electrons
   NUPDOWN=      -1.0000    fix difference up-down

 DOS related values:
   EMIN   =  10.00;   EMAX   =-10.00  energy-range for DOS
   EFERMI =   0.00
   ISMEAR =     0;   SIGMA  =   0.10  broadening in eV -4-tet -1-fermi 0-gaus

 Electronic relaxation 2 (details)
   IALGO  =     53    algorithm
   LDIAG  =      T    sub-space diagonalisation (order eigenvalues)
   LSUBROT=      F    optimize rotation matrix (better conditioning)
   TURBO    =      0    0=normal 1=particle mesh
   IRESTART =      0    0=no restart 2=restart with 2 vectors
   NREBOOT  =      0    no. of reboots
   NMIN     =      0    reboot dimension
   EREF     =   0.00    reference energy to select bands
   IMIX   =      4    mixing-type and parameters
     AMIX     =   0.40;   BMIX     =  1.00
     AMIX_MAG =   1.60;   BMIX_MAG =  1.00
     AMIN     =   0.10
     WC   =   100.;   INIMIX=   1;  MIXPRE=   1;  MAXMIX= -45

 Intra band minimization:
   WEIMIN = 0.0000     energy-eigenvalue tresh-hold
[...]
   33        0.863   1.762   0.000   2.626
   34        0.869   1.772   0.000   2.641
   35        0.869   1.768   0.000   2.637
   36        0.866   1.776   0.000   2.643
   37        0.868   1.783   0.000   2.651
   38        0.867   1.770   0.000   2.637
   39        0.863   1.754   0.000   2.617
   40        0.867   1.776   0.000   2.642
   41        0.872   1.786   0.000   2.658
   42        0.866   1.777   0.000   2.644
   43        0.870   1.791   0.000   2.661
   44        0.871   1.763   0.000   2.634
   45        0.868   1.767   0.000   2.635
   46        0.867   1.773   0.000   2.640
   47        0.867   1.771   0.000   2.639
   48        0.866   1.773   0.000   2.639
   49        0.864   1.760   0.000   2.624
   50        0.872   1.668   0.000   2.540
   51        0.868   1.627   0.000   2.496
   52        0.867   1.665   0.000   2.532
   53        1.238   2.663   0.000   3.901
   54        1.230   2.644   0.000   3.874
   55        1.256   2.568   0.000   3.824
   56        1.235   2.653   0.000   3.888
   57        0.511   0.623   8.392   9.526
   58        0.498   0.661   6.041   7.200
tot         50.987 102.946  14.433 168.366

 magnetization (x)

[...]

  FORCE on cell =-STRESS in cart. coord.  units (eV):
  Direction    XX          YY          ZZ          XY          YZ          ZX
  Alpha Z   100.00603   100.00603   100.00603
  Ewald   47813.98079 47919.37007-56570.25156   -27.80728     1.33257    -2.03853
  Hartree 47362.97594 47380.08046-46709.78316   -23.73662     1.43981    -0.92265
  E(xc)    -722.86973  -722.18594  -737.01809    -0.26756    -0.00293    -0.00363
  Local  -97933.77653-98034.02444100048.51302    50.13867    -2.87875     2.85698
  n-local  -113.61721  -111.76339   -92.42154     0.61986     0.04336     0.00010
  augment   181.16880   176.74197   204.60457     2.87458     0.06010    -0.02529
  Kinetic  3620.88771  3596.09622  4093.66301     0.20570     0.01399     0.13128
  Fock     -352.40250  -348.59817  -337.66926    -2.22611    -0.00076     0.01711
  Total     -43.64669   -44.27718    -0.35696    -0.19875     0.00738     0.01536
  in kB     -22.01203   -22.33000    -0.18002    -0.10024     0.00372     0.00775

 VOLUME and BASIS-vectors are now :
  energy-cutoff  :      500.00
  volume of cell :     3176.89
      direct lattice vectors                 reciprocal lattice vectors
    13.017946501 -0.014021519 -0.000004350     0.076817055  0.000022303 -0.000016198
    -0.003570029 12.296295435  0.000313748     0.000087595  0.081325332 -0.000005165
     0.004184599  0.001255976 19.846559632     0.000000015 -0.000001286  0.050386567

  length of vectors
    13.017954053 12.296295958 19.846560113     0.076817060  0.081325380  0.050386567

 FORCES acting on ions:
    Electron-Ion                     Ewald-Force                    Non-Local-Force
   0.243E+01 0.508E+01 -.102E-01   -.175E+01 -.552E+01 0.138E-01   -.488E+00 0.241E+00 -.422E-02
   0.439E+01 0.101E+02 -.410E+00   -.437E+01 -.105E+02 0.410E+00   -.214E-01 0.378E+00 -.274E-03
   -.969E+01 0.631E+01 -.165E+00   0.987E+01 -.652E+01 0.161E+00   -.285E+00 0.184E+00 0.501E-02
   0.533E+01 0.225E+02 0.633E+00   -.521E+01 -.226E+02 -.638E+00   -.112E+00 0.150E+00 0.589E-02
   0.209E+02 0.583E+02 0.493E+00   -.219E+02 -.616E+02 -.479E+00   0.112E+01 0.344E+01 -.120E-01
   0.168E+02 0.134E+02 -.114E+01   -.170E+02 -.136E+02 0.114E+01   0.355E+00 0.171E+00 -.892E-03
   0.601E+01 0.183E+02 -.361E+00   -.614E+01 -.186E+02 0.362E+00   0.347E-01 0.368E+00 -.146E-02
   0.480E+02 -.237E+02 -.965E-02   -.496E+02 0.264E+02 0.237E-01   0.150E+01 -.315E+01 -.150E-01
   0.787E+01 -.581E+01 -.201E+01   -.801E+01 0.624E+01 0.201E+01   0.225E-01 -.380E+00 -.546E-02
   0.253E+02 -.684E+01 -.153E+01   -.257E+02 0.719E+01 0.153E+01   0.490E+00 -.365E+00 -.101E-01
   0.591E+02 -.307E+02 0.111E+01   -.597E+02 0.314E+02 -.111E+01   0.171E+01 -.424E+00 -.307E-02
   0.143E+02 -.232E+02 -.244E+00   -.137E+02 0.244E+02 0.236E+00   -.566E+00 -.781E+00 0.533E-02
   0.299E+01 -.146E+02 -.139E+01   -.255E+01 0.148E+02 0.139E+01   -.300E+00 -.270E+00 -.235E-02
   0.102E+02 -.101E+02 -.167E+01   -.100E+02 0.103E+02 0.167E+01   -.263E+00 -.104E+00 -.475E-02
   -.946E+01 -.135E+02 -.295E+00   0.101E+02 0.130E+02 0.299E+00   -.642E+00 0.343E+00 -.729E-02
   -.441E+00 -.273E+01 -.563E+00   0.729E+00 0.264E+01 0.564E+00   -.253E+00 0.158E+00 -.858E-03
   -.615E+01 -.617E+01 -.783E+00   0.685E+01 0.617E+01 0.780E+00   -.655E+00 -.435E-01 0.671E-04
   -.228E+01 0.702E+01 -.111E+00   0.247E+01 -.755E+01 0.104E+00   -.328E+00 0.684E+00 0.492E-02
   0.278E+01 0.132E+02 -.862E+00   -.298E+01 -.136E+02 0.856E+00   0.156E+00 0.270E+00 0.172E-02
   0.293E+02 0.434E+02 0.486E+00   -.312E+02 -.460E+02 -.478E+00   0.202E+01 0.277E+01 -.753E-02
   0.117E+02 0.165E+02 -.360E+00   -.122E+02 -.172E+02 0.362E+00   0.544E+00 0.697E+00 -.393E-02
   -.160E+02 0.142E+02 -.801E+00   0.162E+02 -.143E+02 0.806E+00   -.213E+00 0.159E+00 -.742E-02
   -.491E+02 0.149E+02 0.278E+00   0.524E+02 -.144E+02 -.270E+00   -.361E+01 -.749E+00 -.717E-02
   -.293E+02 -.425E+00 0.656E+00   0.286E+02 0.260E+01 -.664E+00   0.750E+00 -.170E+01 0.955E-02
   -.645E+01 0.221E+02 0.922E+00   0.729E+01 -.272E+02 -.923E+00   -.600E+00 0.480E+01 0.295E-02
   -.160E+02 -.370E+02 -.272E+00   0.174E+02 0.401E+02 0.289E+00   -.156E+01 -.339E+01 -.191E-01
   0.492E+00 -.755E+01 -.676E+00   -.223E+01 0.830E+01 0.673E+00   0.140E+01 -.549E+00 0.852E-04
   0.111E+02 0.842E+01 -.294E+00   -.112E+02 -.950E+01 0.292E+00   0.129E+00 0.944E+00 -.136E-02
   -.246E+01 -.398E+00 -.115E+01   0.235E+01 0.132E+00 0.115E+01   0.723E-01 0.275E+00 -.628E-02
   0.175E+01 0.245E+01 -.757E+00   -.159E+01 -.250E+01 0.755E+00   -.904E-01 0.375E-01 0.216E-02
   -.251E+01 0.591E+01 -.981E+00   0.265E+01 -.577E+01 0.979E+00   -.124E+00 -.153E+00 0.510E-04
   -.799E+01 0.214E+01 -.109E+01   0.797E+01 -.209E+01 0.109E+01   -.270E-01 -.417E-01 -.410E-02
   -.591E+01 0.298E+01 -.747E+00   0.597E+01 -.303E+01 0.748E+00   -.408E-01 0.381E-01 -.113E-02
   0.152E+01 0.827E+01 -.965E+00   -.169E+01 -.835E+01 0.964E+00   0.185E+00 0.112E+00 0.736E-03
   -.733E+01 0.332E+01 -.329E+00   0.682E+01 -.338E+01 0.329E+00   0.592E+00 0.360E-01 0.520E-04
   -.623E+01 0.963E+00 -.866E+00   0.609E+01 -.779E+00 0.866E+00   0.153E+00 -.146E+00 -.212E-02
   0.343E+01 0.113E+01 -.129E+01   -.387E+01 -.115E+01 0.129E+01   0.342E+00 0.328E-01 -.182E-02
   0.341E+01 0.126E+01 -.132E+01   -.359E+01 -.136E+01 0.132E+01   0.184E+00 0.355E-01 -.121E-02
   -.341E+01 0.222E+01 -.141E+00   0.290E+01 -.270E+01 0.141E+00   0.434E+00 0.496E+00 -.527E-03
   -.420E+01 -.278E+01 -.589E+00   0.397E+01 0.249E+01 0.585E+00   0.180E+00 0.186E+00 0.260E-02
   0.752E+01 -.195E+01 -.168E+01   -.739E+01 0.193E+01 0.168E+01   -.373E-01 0.338E-01 -.235E-02
   0.699E+00 -.587E+01 -.118E+01   -.372E+00 0.592E+01 0.118E+01   -.236E+00 -.692E-02 -.639E-03
   -.953E+01 -.107E+02 -.502E+00   0.101E+02 0.110E+02 0.504E+00   -.487E+00 -.349E+00 -.107E-02
   -.734E+01 0.181E+01 -.510E+00   0.741E+01 -.212E+01 0.507E+00   -.151E+00 0.343E+00 0.272E-02
   -.995E+00 -.290E+01 -.113E+01   0.102E+01 0.296E+01 0.113E+01   -.154E+00 -.732E-01 0.312E-03
   -.106E+01 -.592E+01 -.739E+00   0.110E+01 0.606E+01 0.738E+00   -.600E-01 -.170E+00 0.273E-02
   0.142E+01 -.621E+00 -.104E+01   -.151E+01 0.724E+00 0.104E+01   0.123E+00 -.976E-01 0.574E-03
   -.416E+01 -.215E+01 -.794E+00   0.432E+01 0.255E+01 0.797E+00   -.158E+00 -.351E+00 -.224E-02
   -.765E+01 0.781E+00 -.653E+00   0.786E+01 -.708E+00 0.654E+00   -.229E+00 -.106E-01 0.262E-03
   -.257E+02 -.399E+02 0.914E+00   0.312E+02 0.400E+02 -.969E+00   -.608E+01 -.182E+00 0.576E-01
   -.164E+02 -.378E+02 0.182E+01   0.710E+01 0.371E+02 -.187E+01   0.919E+01 0.502E+00 0.536E-01
   0.351E+02 0.444E+01 -.352E+00   -.388E+02 -.954E+01 0.337E+00   0.392E+01 0.541E+01 0.131E-01
   0.277E+01 0.494E+02 0.236E+01   0.194E+02 -.483E+02 -.254E+01   -.210E+02 -.984E+00 0.176E+00
   0.227E+02 0.332E+02 0.162E+01   -.327E+02 -.151E+02 -.174E+01   0.949E+01 -.171E+02 0.116E+00
   -.729E+02 -.668E+02 0.674E+01   0.934E+02 0.674E+02 -.700E+01   -.202E+02 -.741E+00 0.258E+00
   0.373E+02 0.163E+02 0.143E+01   -.574E+02 -.175E+02 -.153E+01   0.191E+02 0.123E+01 0.967E-01
   -.496E+02 0.111E+02 0.764E+01   0.527E+02 -.811E+01 -.763E+01   -.335E+01 -.356E+01 -.620E-02
   -.104E+02 -.483E+02 0.494E+01   0.790E+01 0.494E+02 -.491E+01   0.294E+01 -.173E+01 -.321E-01
   0.592E+01 0.137E+02 -.713E+00   0.807E-12 -.263E-12 -.622E-14   -.517E+01 -.131E+02 0.643E+00

 POSITION                                       TOTAL-FORCE (eV/Angst)
      2.95322      0.02822      9.91894         0.161467     -0.193265     -0.000862
      0.74243      1.22797      9.92252         0.007198     -0.020608     -0.000010
      1.48882      0.01061      9.92143        -0.130530     -0.011586      0.000509
      3.67585      1.29753      9.91559        -0.005190      0.037576      0.001772
      2.89271      2.52423      9.91529         0.173147      0.299772      0.000829
      0.66402      3.67048      9.92432         0.171856     -0.038101     -0.002355
      1.44067      2.47069      9.92092        -0.102145      0.070966      0.000065
      2.73773      4.88063      9.91542        -0.003604     -0.588687     -0.001773
      0.63896      6.14532      9.92719        -0.121338      0.034114     -0.005197
      1.33892      4.90572      9.92376         0.132532     -0.044922     -0.005070
      3.45595      6.10759      9.91031         1.216302      0.212888     -0.008916
      2.76396      7.36370      9.91762         0.012775      0.418131     -0.002191
      0.68648      8.62125      9.92621         0.125837     -0.098941     -0.003001
      1.35383      7.37454      9.92522        -0.061155      0.127701     -0.005951
      2.89881      9.81381      9.91996        -0.003582     -0.084797     -0.003126
      0.74861     11.07729      9.92387         0.029540      0.068569      0.000021
      1.45172      9.83541      9.92374         0.006900     -0.049646     -0.002028
      3.64541     11.06315      9.91941        -0.150201      0.196304     -0.001851
      7.25480     12.27757      9.92235        -0.032502     -0.033562     -0.003605
      5.13985      1.29488      9.91504         0.200658      0.262400      0.000742
      5.82055      0.00753      9.91918         0.077302     -0.040589     -0.001946
      7.98875      1.20427      9.92157        -0.016306      0.113735     -0.003105
      7.27072      2.42093      9.91580        -0.423816     -0.224086      0.000412
      7.97411      3.68922      9.91492         0.055390      0.392051      0.001766
      7.92452      6.14885      9.91372         0.213311      0.009408      0.002416
      8.01431      8.57103      9.91906        -0.205245     -0.491419     -0.002989
      7.26901      9.82628      9.92096        -0.271306      0.178047     -0.003026
      5.10043     11.04334      9.91937         0.106126     -0.086708     -0.003386
      7.98949     11.05320      9.92402        -0.034502      0.018389     -0.003384
     11.59319     12.28311      9.92563         0.074536     -0.009510      0.000249
      9.42498      1.20875      9.92435         0.008407     -0.014618     -0.002770
     10.15044     12.28382      9.92602        -0.060731      0.000125     -0.002024
     12.31432      1.21351      9.92481         0.001354     -0.019839     -0.000499
     11.56261      2.43108      9.92547         0.027099      0.039798     -0.001116
      9.40427      3.66877      9.92084         0.109769     -0.016301      0.000064
     10.13210      2.43753      9.92413         0.025441      0.026171     -0.001711
     12.25492      3.66424      9.92620        -0.090359      0.000039     -0.001650
     11.53422      4.89713      9.92636         0.021188     -0.053182     -0.001986
      9.37900      6.13389      9.92000        -0.054115      0.039782     -0.000427
     10.10468      4.90317      9.92263        -0.048964     -0.091092     -0.000955
     12.24593      6.13021      9.92774         0.101434      0.020676     -0.002524
     11.54834      7.36837      9.92646         0.079127      0.035930      0.000021
      9.43250      8.59810      9.92257         0.086837     -0.062369      0.000745
     10.12082      7.35877      9.92305        -0.089339      0.060539      0.000522
     12.27373      8.60245      9.92665        -0.134948     -0.010565      0.000293
     11.57750      9.83866      9.92573        -0.021220     -0.048377      0.001731
      9.42603     11.06064      9.92550         0.041765     -0.000735     -0.002053
     10.14690      9.83601      9.92501        -0.003709      0.036083      0.000565
     12.32101     11.06093      9.92527        -0.041061      0.065384      0.001326
      3.54865      8.54322      9.91473        -0.874616     -0.087499      0.005198
      7.20272      4.88698      9.90953         0.364332     -0.233866      0.006756
      5.84639      9.81564      9.91843         0.425463      0.575928     -0.002220
      3.50226      3.75269      9.91014        -0.650105      0.058682      0.008591
      5.89700      2.46745      9.91151         0.289494     -0.525993      0.007396
      4.78787      6.08573      9.89932        -1.383012     -0.220801      0.018629
      7.30514      7.40172      9.91318         0.696295      0.202051      0.003871
      5.37273      4.33703      9.90371        -0.063438     -0.155877      0.011732
      5.37111      7.93322      9.90729         0.034160     -0.043698      0.007492
    total drift:                               -0.002940      0.003192     -0.002644

  FREE ENERGIE OF THE ION-ELECTRON SYSTEM (eV)
  free  energy   TOTEN  =      -604.76742764 eV

  energy  without entropy=     -604.76537736  energy(sigma->0) =     -604.76640250

 stress matrix after NEB project (eV)
    -43.64669     -0.19660      0.01536
     -0.19875    -44.27718      0.00743
      0.01521      0.00738     -0.35696
  FORCES: max atom, RMS     1.400650    0.378955
  FORCE total and by dimension    2.886036    1.383012
  Stress total and by dimension   62.174818   44.277178
 writing wavefunctions

 total charge

[...]

 magnetization (x)

# of ion       s       p       d       tot
    1        0.000   0.005   0.000   0.005
    2        0.001   0.020   0.000   0.021
    3       -0.001  -0.014   0.000  -0.015
    4        0.001   0.018   0.000   0.019
    5        0.001   0.010   0.000   0.011
    6        0.001   0.016   0.000   0.017
    7       -0.001  -0.010   0.000  -0.011
    8        0.003   0.052   0.000   0.055
    9        0.003   0.053   0.000   0.056
   10       -0.002  -0.018   0.000  -0.020
   11       -0.000  -0.003   0.000  -0.003
   12        0.003   0.039   0.000   0.043
   13        0.001   0.015   0.000   0.016
   14       -0.002  -0.017   0.000  -0.019
   15        0.001   0.021   0.000   0.022
   16        0.001   0.016   0.000   0.017
   17       -0.002  -0.015   0.000  -0.016
   18        0.000   0.005   0.000   0.006
   19        0.001   0.013   0.000   0.014
   20        0.001   0.012   0.000   0.012
   21       -0.002  -0.015   0.000  -0.017
   22       -0.001  -0.008   0.000  -0.009
   23        0.002   0.033   0.000   0.035
   24       -0.002  -0.019   0.000  -0.021
   25       -0.002  -0.017   0.000  -0.019
   26       -0.000  -0.008   0.000  -0.009
   27        0.003   0.026   0.000   0.029
   28        0.001   0.018   0.000   0.019
   29       -0.001  -0.012   0.000  -0.014
   30        0.001   0.013   0.000   0.014
   31        0.002   0.030   0.000   0.033
   32       -0.002  -0.017   0.000  -0.019
   33       -0.001  -0.012   0.000  -0.013
   34        0.001   0.018   0.000   0.019
   35        0.001   0.019   0.000   0.020
   36       -0.001  -0.012   0.000  -0.013
   37       -0.002  -0.018   0.000  -0.020
   38        0.003   0.036   0.000   0.039
   39        0.002   0.027   0.000   0.029
   40       -0.002  -0.019   0.000  -0.021
   41       -0.002  -0.021   0.000  -0.023
   42        0.002   0.025   0.000   0.026
   43        0.001   0.019   0.000   0.020
   44       -0.001  -0.015   0.000  -0.016
   45       -0.001  -0.016   0.000  -0.017
   46        0.002   0.022   0.000   0.024
   47        0.002   0.027   0.000   0.029
   48       -0.001  -0.010   0.000  -0.011
   49       -0.001  -0.013   0.000  -0.015
   50       -0.018  -0.073   0.000  -0.091
   51        0.004   0.060   0.000   0.064
   52       -0.016  -0.062   0.000  -0.077
   53       -0.000   0.010   0.000   0.010
   54       -0.000   0.006   0.000   0.006
   55        0.003   0.119   0.000   0.122
   56        0.001   0.047   0.000   0.048
   57       -0.000   0.008   0.018   0.026
   58        0.062   0.024   2.895   2.981
tot          0.048   0.436   2.913   3.397