 vasp.5.4.4.18Apr17-6-g9f103f2a35 (build Feb 25 2019 10:51:38) complex

 executed on             LinuxIFC date 2021.06.16  14:40:07

 INCAR:
 POTCAR:    PAW_PBE C 08Apr2002
 POTCAR:    PAW_PBE N 08Apr2002
 POTCAR:    PAW_PBE Ni 02Aug2007
 POTCAR:    PAW_PBE Fe 06Sep2000

 POTCAR:    PAW_PBE C 08Apr2002
   VRHFIN =C: s2p2

   TITEL  = PAW_PBE C 08Apr2002
   POMASS =   12.011; ZVAL   =    4.000    mass and valenz
   ENMAX  =  400.000; ENMIN  =  300.000 eV

 POTCAR:    PAW_PBE N 08Apr2002
   VRHFIN =N: s2p3

   TITEL  = PAW_PBE N 08Apr2002
   POMASS =   14.001; ZVAL   =    5.000    mass and valenz
   ENMAX  =  400.000; ENMIN  =  300.000 eV

 POTCAR:    PAW_PBE Ni 02Aug2007
   VRHFIN =Ni:

   TITEL  = PAW_PBE Ni 02Aug2007
   POMASS =   58.690; ZVAL   =   10.000    mass and valenz
   ENMAX  =  269.532; ENMIN  =  202.149 eV

 POTCAR:    PAW_PBE Fe 06Sep2000
   VRHFIN =Fe:  d7 s1

   TITEL  = PAW_PBE Fe 06Sep2000
   POMASS =   55.847; ZVAL   =    8.000    mass and valenz
   ENMAX  =  267.882; ENMIN  =  200.911 eV

  PAW_PBE C 08Apr2002                   :
  PAW_PBE N 08Apr2002                   :
  PAW_PBE Ni 02Aug2007                  :
  PAW_PBE Fe 06Sep2000                  :

 POSCAR:  C  N Ni Fe
  positions in cartesian coordinates
 exchange correlation table for  LEXCH =        8
   RHO(1)=    0.500       N(1)  =     2000
   RHO(2)=  100.500       N(2)  =     4000

 VTST: version 3.2, (02/03/18)

 CHAIN: initializing optimizer

 OPT: Using VASP Conjugate-Gradient optimizer
 CHAIN: Read ICHAIN            0

 POSCAR:  C  N Ni Fe
  positions in cartesian coordinates

 ion  position               nearest neighbor table
   1  0.222  0.002  0.500-  19 1.42   3 1.42   4 1.43
   2  0.056  0.102  0.500-   3 1.42  33 1.43   7 1.44
   3  0.110  0.001  0.500-   2 1.42   1 1.42  17 1.43
   4  0.278  0.102  0.499-  21 1.42   5 1.43   1 1.43
   5  0.225  0.205  0.498-   4 1.43   7 1.44   8 1.45
   6  0.057  0.302  0.499-   7 1.42  11 1.43  37 1.44
   7  0.113  0.203  0.499-   6 1.42   5 1.44   2 1.44
   8  0.286  0.304  0.497-  50 1.38   5 1.45   9 1.46
   9  0.228  0.407  0.500-  49 1.37  11 1.46   8 1.46
  10  0.056  0.501  0.500-  14 1.42  11 1.42  40 1.45
  11  0.114  0.402  0.499-  10 1.42   6 1.43   9 1.46
  12  0.225  0.598  0.502-  49 1.36  14 1.44  15 1.45
  13  0.054  0.699  0.500-  14 1.42  18 1.42  44 1.44
  14  0.112  0.600  0.500-  10 1.42  13 1.42  12 1.44
  15  0.280  0.701  0.503-  52 1.37  16 1.43  12 1.45
  16  0.222  0.800  0.502-  15 1.43  19 1.43  18 1.43
  17  0.054  0.900  0.500-  18 1.42  48 1.43   3 1.43
  18  0.110  0.800  0.501-  17 1.42  13 1.42  16 1.43
  19  0.277  0.901  0.501-  27 1.42   1 1.42  16 1.43
  20  0.555  0.999  0.501-  22 1.41  23 1.42  29 1.42
  21  0.389  0.102  0.499-   4 1.42  22 1.43  25 1.43
  22  0.444  0.001  0.501-  20 1.41  27 1.42  21 1.43
  23  0.610  0.099  0.499-  24 1.42  31 1.42  20 1.42
  24  0.557  0.200  0.496-  51 1.36  23 1.42  25 1.45
  25  0.444  0.203  0.496-  50 1.37  21 1.43  24 1.45
  26  0.554  0.797  0.504-  53 1.38  29 1.43  28 1.44
  27  0.388  0.901  0.502-  19 1.42  28 1.42  22 1.42
  28  0.441  0.800  0.504-  52 1.37  27 1.42  26 1.44
  29  0.609  0.898  0.502-  46 1.42  20 1.42  26 1.43
  30  0.888  1.000  0.501-  48 1.42  32 1.42  33 1.43
  31  0.722  0.099  0.500-  23 1.42  32 1.42  36 1.43
  32  0.777  0.999  0.501-  31 1.42  30 1.42  46 1.43
  33  0.944  0.101  0.500-  34 1.42   2 1.43  30 1.43
  34  0.889  0.201  0.499-  37 1.42  33 1.42  36 1.43
  35  0.718  0.299  0.496-  51 1.36  36 1.43  39 1.46
  36  0.776  0.200  0.499-  31 1.43  35 1.43  34 1.43
  37  0.944  0.301  0.499-  34 1.42  38 1.43   6 1.44
  38  0.886  0.400  0.498-  40 1.42  37 1.43  39 1.45
  39  0.772  0.403  0.497-  54 1.36  38 1.45  35 1.46
  40  0.942  0.500  0.499-  41 1.42  38 1.42  10 1.45
  41  0.884  0.599  0.499-  40 1.42  44 1.43  43 1.46
  42  0.713  0.697  0.502-  53 1.38  47 1.45  43 1.46
  43  0.770  0.594  0.499-  54 1.37  41 1.46  42 1.46
  44  0.941  0.698  0.500-  45 1.42  41 1.43  13 1.44
  45  0.886  0.798  0.501-  44 1.42  47 1.44  48 1.44
  46  0.720  0.898  0.502-  29 1.42  47 1.42  32 1.43
  47  0.773  0.796  0.501-  46 1.42  45 1.44  42 1.45
  48  0.942  0.899  0.501-  30 1.42  17 1.43  45 1.44
  49  0.281  0.504  0.502-  12 1.36   9 1.37
  50  0.394  0.302  0.494-  25 1.37   8 1.38  55 2.09
  51  0.611  0.296  0.493-  24 1.36  35 1.36  55 1.91
  52  0.388  0.703  0.505-  15 1.37  28 1.37  56 1.97
  53  0.604  0.698  0.505-  26 1.38  42 1.38  56 2.10
  54  0.717  0.497  0.497-  39 1.36  43 1.37
  55  0.516  0.414  0.481-  51 1.91  50 2.09  56 2.24
  56  0.486  0.582  0.520-  52 1.97  53 2.10  55 2.24

  LATTYP: Found a triclinic cell.
 ALAT       =    26.9006269587
 B/A-ratio  =     0.4732677799
 C/A-ratio  =     0.4583908033
 COS(alpha) =     0.0000767945
 COS(beta)  =     0.4581789988
 COS(gamma) =     0.4734946735

  Lattice vectors:

 A1 = (  12.7373035787, -12.3243242096, -20.2364982419)
 A2 = (  12.7312000000,   0.0000000000,   0.0000000000)
 A3 = (   0.0009469528, -12.3309999636,   0.0000000000)

Analysis of symmetry for initial positions (statically):
 Subroutine PRICEL returns:
 Original cell was already a primitive cell.

 Routine SETGRP: Setting up the symmetry group for a
 triclinic supercell.

 Subroutine GETGRP returns: Found  1 space group operations
 (whereof  1 operations were pure point group operations)
 out of a pool of  2 trial point group operations.

The static configuration has the point symmetry C_1 .

Analysis of symmetry for dynamics (positions and initial velocities):
 Subroutine PRICEL returns:
 Original cell was already a primitive cell.

[...]

The dynamic configuration has the point symmetry C_1 .

Analysis of structural, dynamic, and magnetic symmetry:
 Subroutine PRICEL returns:
 Original cell was already a primitive cell.

 Routine SETGRP: Setting up the symmetry group for a
 triclinic supercell.

 Subroutine GETGRP returns: Found  1 space group operations
 (whereof  1 operations were pure point group operations)
 out of a pool of  2 trial point group operations.

The magnetic configuration has the point symmetry C_1 .

 Subroutine INISYM returns: Found  1 space group operations
 (whereof  1 operations are pure point group operations),
 and found     1 'primitive' translations

 KPOINTS: KPOINTS created by Atomic Simulation Env

Automatic generation of k-mesh.
Space group operators:
 irot       det(A)        alpha          n_x          n_y          n_z        tau_x        tau_y        tau_z
    1     1.000000     0.000000     1.000000     0.000000     0.000000     0.000000     0.000000     0.000000

 Subroutine IBZKPT returns following result:

 Found      2 irreducible k-points:

 Following reciprocal coordinates:
            Coordinates               Weight
  0.250000  0.250000 -0.000000      2.000000
 -0.250000  0.250000  0.000000      2.000000

 Following cartesian coordinates:
            Coordinates               Weight
  0.019637  0.020276  0.000012      2.000000
 -0.019637  0.020273  0.000002      2.000000

 Subroutine IBZKPT_HF returns following result:

 Found      4 k-points in 1st BZ
 the following      4 k-points will be used (e.g. in the exchange kernel)
 Following reciprocal coordinates:   # in IRBZ
  0.250000  0.250000 -0.000000    0.25000000   1 t-inv F
 -0.250000  0.250000  0.000000    0.25000000   2 t-inv F
 -0.250000 -0.250000  0.000000    0.25000000   1 t-inv T
  0.250000 -0.250000 -0.000000    0.25000000   2 t-inv T

 SYSTEM =  unknown system
 POSCAR =   C  N Ni Fe

 Startparameter for this run:
   NWRITE =      2    write-flag & timer
   PREC   = accura    normal or accurate (medium, high low for compatibility)
   ISTART =      1    job   : 0-new  1-cont  2-samecut
   ICHARG =      0    charge: 1-file 2-atom 10-const
   ISPIN  =      2    spin polarized calculation?
   LNONCOLLINEAR =      F non collinear calculations
   LSORBIT =      F    spin-orbit coupling
   INIWAV =      1    electr: 0-lowe 1-rand  2-diag
   LASPH  =      T    aspherical Exc in radial PAW
   METAGGA=      F    non-selfconsistent MetaGGA calc.

 Electronic Relaxation 1
   ENCUT  =  500.0 eV  36.75 Ry    6.06 a.u.  23.21 22.48 36.90*2*pi/ulx,y,z
   ENINI  =  500.0     initial cutoff
   ENAUG  =  644.9 eV  augmentation charge cutoff
   NELM   =    250;   NELMIN=  2; NELMDL=  0     # of ELM steps
   EDIFF  = 0.1E-03   stopping-criterion for ELM
   LREAL  =      F    real-space projection
   NLSPLINE    = F    spline interpolate recip. space projectors
   LCOMPAT=      F    compatible to vasp.4.4
   GGA_COMPAT  = T    GGA compatible to vasp.4.4-vasp.4.6
   LMAXPAW     = -100 max onsite density
   LMAXMIX     =    2 max onsite mixed and CHGCAR
   VOSKOWN=      0    Vosko Wilk Nusair interpolation
   ROPT   =    0.00000   0.00000   0.00000   0.00000
 Ionic relaxation
   EDIFFG = -.3E-01   stopping-criterion for IOM
   NSW    =      0    number of steps for IOM
   NBLOCK =      1;   KBLOCK =      1    inner block; outer block
   IBRION =     -1    ionic relax: 0-MD 1-quasi-New 2-CG
   NFREE  =      1    steps in history (QN), initial steepest desc. (CG)
   ISIF   =      2    stress and relaxation
   IWAVPR =     10    prediction:  0-non 1-charg 2-wave 3-comb
   ISYM   =      3    0-nonsym 1-usesym 2-fastsym
   LCORR  =      T    Harris-Foulkes like correction to forces

   POTIM  = 0.5000    time-step for ionic-motion
   TEIN   =    0.0    initial temperature
   TEBEG  =    0.0;   TEEND  =   0.0 temperature during run
   SMASS  =  -3.00    Nose mass-parameter (am)
   estimated Nose-frequenzy (Omega)   =  0.10E-29 period in steps =****** mass=  -0.370E-26a.u.
   SCALEE = 1.0000    scale energy and forces
   NPACO  =    256;   APACO  = 16.0  distance and # of slots for P.C.
   PSTRESS=    0.0 pullay stress

  Mass of Ions in am
   POMASS =  12.01 14.00 58.69 55.85
  Ionic Valenz
   ZVAL   =   4.00  5.00 10.00  8.00
  Atomic Wigner-Seitz radii
  virtual crystal weights
   VCA    =   1.00  1.00  1.00  1.00
   NELECT =     240.0000    total number of electrons
   NUPDOWN=      -1.0000    fix difference up-down

 DOS related values:
   EMIN   =  10.00;   EMAX   =-10.00  energy-range for DOS
   EFERMI =   0.00
   ISMEAR =     0;   SIGMA  =   0.10  broadening in eV -4-tet -1-fermi 0-gaus

 Electronic relaxation 2 (details)
   IALGO  =     53    algorithm
   LDIAG  =      T    sub-space diagonalisation (order eigenvalues)
   LSUBROT=      F    optimize rotation matrix (better conditioning)
   TURBO    =      0    0=normal 1=particle mesh
   IRESTART =      0    0=no restart 2=restart with 2 vectors
   NREBOOT  =      0    no. of reboots
   NMIN     =      0    reboot dimension
   EREF     =   0.00    reference energy to select bands
   IMIX   =      4    mixing-type and parameters
     AMIX     =   0.40;   BMIX     =  1.00
     AMIX_MAG =   1.60;   BMIX_MAG =  1.00
     AMIN     =   0.10
     WC   =   100.;   INIMIX=   1;  MIXPRE=   1;  MAXMIX= -45

 Intra band minimization:
   WEIMIN = 0.0000     energy-eigenvalue tresh-hold
   EBREAK =  0.16E-06  absolut break condition
   DEPER  =   0.30     relativ break condition

   TIME   =   0.20     timestep for ELM

[...]
   21        0.869   1.781   0.000   2.650
   22        0.866   1.795   0.000   2.661
   23        0.871   1.790   0.000   2.661
   24        0.864   1.754   0.000   2.618
   25        0.861   1.739   0.000   2.599
   26        0.860   1.740   0.000   2.600
   27        0.870   1.786   0.000   2.656
   28        0.862   1.748   0.000   2.610
   29        0.869   1.782   0.000   2.651
   30        0.867   1.778   0.000   2.644
   31        0.871   1.771   0.000   2.642
   32        0.864   1.786   0.000   2.651
   33        0.866   1.769   0.000   2.635
   34        0.867   1.774   0.000   2.641
   35        0.859   1.739   0.000   2.597
   36        0.866   1.775   0.000   2.641
   37        0.863   1.773   0.000   2.636
   38        0.866   1.768   0.000   2.633
   39        0.855   1.728   0.000   2.583
   40        0.868   1.760   0.000   2.627
   41        0.863   1.757   0.000   2.620
   42        0.851   1.711   0.000   2.562
   43        0.852   1.717   0.000   2.569
   44        0.864   1.774   0.000   2.638
   45        0.865   1.765   0.000   2.630
   46        0.870   1.766   0.000   2.636
   47        0.863   1.759   0.000   2.621
   48        0.866   1.768   0.000   2.634
   49        1.249   2.606   0.000   3.855
   50        1.235   2.626   0.000   3.861
   51        1.236   2.685   0.000   3.921
   52        1.234   2.684   0.000   3.918
   53        1.232   2.642   0.000   3.875
   54        1.246   2.602   0.000   3.848
   55        0.395   0.335   8.457   9.187
   56        0.365   0.307   6.196   6.867
tot         49.660 101.064  14.652 165.376

 magnetization (x)

[...]

  FORCE on cell =-STRESS in cart. coord.  units (eV):
  Direction    XX          YY          ZZ          XY          YZ          ZX
  Alpha Z    94.61669    94.61669    94.61669
  Ewald   47191.39220 47431.46018-55735.43006   -52.40974   -98.14044    20.98631
  Hartree 46905.36948 46995.51824-46183.78756   -20.33093   -48.59884    10.38070
  E(xc)    -710.38144  -710.79460  -725.33876     0.14577    -0.22627    -0.00157
  Local  -96784.24164-97104.50924 98746.41264    71.54734   140.56011   -32.32998
  n-local  -135.02010  -126.28706  -115.86250    -1.11191     0.97814     0.38259
  augment   183.73463   184.76484   201.61969    -0.48687     0.95578     1.32434
  Kinetic  3571.40363  3549.48804  4055.44941    -7.58146     4.60525    -0.33882
  Fock     -357.38719  -359.36430  -338.08673    -0.24282     0.64842    -0.50617
  Total     -40.51373   -45.10721    -0.40720   -10.47063     0.78214    -0.10259
  in kB     -20.43195   -22.74854    -0.20536    -5.28056     0.39445    -0.05174

 VOLUME and BASIS-vectors are now :
  energy-cutoff  :      500.00
  volume of cell :     3176.90
      direct lattice vectors                 reciprocal lattice vectors
    12.731200000  0.000000000  0.000000000     0.078547191  0.000006032  0.000020017
    -0.000946953 12.330999964  0.000000000     0.000000000  0.081096424  0.000026753
    -0.005156626 -0.006675754 20.236498242     0.000000000  0.000000000  0.049415664

  length of vectors
    12.731200000 12.331000000 20.236500000     0.078547194  0.081096428  0.049415664

 FORCES acting on ions:
    Electron-Ion                     Ewald-Force                    Non-Local-Force
   0.345E+01 -.293E+01 0.815E+00   -.384E+01 0.294E+01 -.828E+00   0.377E+00 -.295E-01 0.162E-01
   -.579E+00 -.447E+01 0.392E+00   0.654E+00 0.443E+01 -.401E+00   -.430E-01 0.229E-01 0.170E-01
   0.438E+01 0.200E+01 0.507E+00   -.448E+01 -.199E+01 -.511E+00   0.723E-01 -.168E-01 0.478E-02
   0.123E+02 0.435E+01 0.273E+01   -.126E+02 -.453E+01 -.276E+01   0.295E+00 0.195E+00 0.233E-01
   0.111E+02 -.756E+01 0.389E+01   -.113E+02 0.788E+01 -.390E+01   0.262E+00 -.273E+00 0.281E-01
   0.140E+01 -.349E+01 0.116E+01   -.154E+01 0.325E+01 -.118E+01   0.168E+00 0.154E+00 0.148E-01
   -.353E+00 0.184E+01 0.877E+00   -.113E-01 -.174E+01 -.850E+00   0.257E+00 -.726E-01 -.221E-01
   0.345E+02 -.175E+02 0.649E+01   -.372E+02 0.178E+02 -.637E+01   0.296E+01 -.515E+00 -.114E+00
   0.266E+01 0.240E+02 -.501E+00   -.382E+01 -.260E+02 0.387E+00   0.119E+01 0.232E+01 0.110E+00
   0.833E+01 0.138E+01 0.893E-01   -.798E+01 -.143E+01 -.549E-01   -.938E-01 0.307E-01 -.407E-01
   -.356E+01 0.594E+01 0.595E+00   0.368E+01 -.640E+01 -.626E+00   -.199E+00 0.503E+00 0.219E-01
   0.622E+01 -.207E+02 -.579E+01   -.769E+01 0.225E+02 0.575E+01   0.142E+01 -.209E+01 0.388E-01
   0.432E+01 0.691E+00 0.627E+00   -.453E+01 -.509E+00 -.629E+00   0.220E+00 -.139E+00 0.507E-02
   -.771E-01 -.379E+01 0.626E+00   0.400E-01 0.427E+01 -.696E+00   -.268E-01 -.482E+00 0.765E-01
   0.319E+02 0.162E+02 -.669E+01   -.352E+02 -.164E+02 0.655E+01   0.357E+01 0.445E+00 0.172E+00
   0.113E+02 0.225E+00 -.157E+01   -.116E+02 -.275E+00 0.155E+01   0.386E+00 0.333E-01 0.193E-01
   0.127E+01 -.109E+01 -.749E-01   -.126E+01 0.118E+01 0.598E-01   0.285E-01 -.765E-01 0.791E-02
   0.254E+01 0.109E+01 0.293E+00   -.300E+01 -.117E+01 -.319E+00   0.366E+00 0.525E-01 0.196E-01
   0.945E+01 -.253E+01 -.221E+01   -.976E+01 0.286E+01 0.221E+01   0.302E+00 -.304E+00 -.984E-02
   -.448E+01 0.396E+01 -.631E+01   0.409E+01 -.402E+01 0.632E+01   0.338E+00 0.482E-01 -.235E-01
   0.342E+01 0.852E+01 0.385E+00   -.320E+01 -.892E+01 -.329E+00   -.179E+00 0.342E+00 -.528E-01
   0.609E+01 0.640E+00 -.386E+01   -.573E+01 -.560E+00 0.385E+01   -.320E+00 -.105E+00 0.233E-02
   -.186E+01 0.143E+02 -.437E+01   0.165E+01 -.149E+02 0.443E+01   0.195E+00 0.507E+00 -.736E-01
   0.158E+02 0.416E+02 0.485E+01   -.172E+02 -.444E+02 -.465E+01   0.171E+01 0.291E+01 -.201E+00
   -.996E+00 0.338E+02 0.667E+01   0.186E+01 -.361E+02 -.655E+01   -.122E+01 0.242E+01 -.106E+00
   0.621E+01 -.209E+02 -.102E+02   -.713E+01 0.235E+02 0.996E+01   0.121E+01 -.272E+01 0.171E+00
   0.124E+01 -.677E+01 -.495E+01   -.104E+01 0.744E+01 0.491E+01   -.136E+00 -.625E+00 0.201E-01
   -.138E+02 -.247E+02 -.101E+02   0.151E+02 0.275E+02 0.985E+01   -.160E+01 -.302E+01 0.181E+00
   -.189E+01 -.240E+01 -.693E+01   0.172E+01 0.294E+01 0.689E+01   0.113E+00 -.500E+00 0.361E-01
   -.504E+01 -.954E+00 -.329E+01   0.515E+01 0.930E+00 0.328E+01   -.747E-01 -.613E-02 0.104E-02
   -.116E+02 0.681E+01 -.417E+01   0.119E+02 -.710E+01 0.412E+01   -.280E+00 0.282E+00 0.314E-01
   -.400E+01 0.473E+01 -.571E+01   0.439E+01 -.478E+01 0.571E+01   -.383E+00 0.286E-01 -.110E-01
   -.252E+01 0.183E+01 -.200E+01   0.253E+01 -.190E+01 0.201E+01   -.443E-01 0.804E-01 -.130E-02
   -.508E+01 -.364E+00 -.233E+01   0.558E+01 0.432E+00 0.234E+01   -.381E+00 -.514E-01 -.976E-02
   -.455E+02 -.139E+02 0.643E+01   0.486E+02 0.141E+02 -.628E+01   -.349E+01 -.437E+00 -.183E+00
   -.158E+02 0.187E+01 -.258E+01   0.161E+02 -.179E+01 0.260E+01   -.409E+00 -.454E-01 -.381E-01
   -.624E+01 -.154E+01 0.328E+00   0.645E+01 0.134E+01 -.345E+00   -.224E+00 0.138E+00 0.465E-02
   -.267E+01 0.292E+01 0.195E+01   0.276E+01 -.338E+01 -.191E+01   0.114E-01 0.488E+00 -.439E-01
   -.133E+02 0.179E+02 0.752E+01   0.147E+02 -.198E+02 -.752E+01   -.143E+01 0.221E+01 0.170E-01
   -.968E+01 -.149E+01 0.234E+01   0.936E+01 0.149E+01 -.237E+01   0.641E-01 -.361E-01 0.246E-01
   0.329E+01 -.713E+01 0.345E+01   -.336E+01 0.761E+01 -.345E+01   0.125E+00 -.481E+00 0.201E-01
   -.262E+02 0.155E+02 -.356E+01   0.290E+02 -.158E+02 0.340E+01   -.315E+01 0.455E+00 0.177E+00
   -.206E+01 -.258E+02 0.379E+01   0.336E+01 0.278E+02 -.374E+01   -.123E+01 -.233E+01 -.346E-01
   -.176E+01 0.319E+01 0.133E+01   0.192E+01 -.296E+01 -.133E+01   -.171E+00 -.164E+00 0.293E-02
   0.353E+00 -.182E+01 0.248E+00   0.162E-01 0.171E+01 -.286E+00   -.282E+00 0.528E-01 0.351E-01
   -.983E+01 -.129E+01 -.623E+01   0.101E+02 0.154E+01 0.625E+01   -.321E+00 -.226E+00 -.198E-01
   -.847E+01 0.781E+01 -.254E+01   0.875E+01 -.803E+01 0.254E+01   -.298E+00 0.194E+00 0.795E-03
   -.952E-01 0.498E+01 -.137E+01   0.229E-01 -.490E+01 0.136E+01   0.239E-01 -.251E-01 -.439E-02
   -.108E+03 0.508E+01 -.156E+02   0.137E+03 -.490E+01 0.162E+02   -.280E+02 -.167E+00 -.589E+00
   0.178E+02 -.661E+02 0.184E+02   -.557E+01 0.874E+02 -.194E+02   -.117E+02 -.203E+02 0.102E+01
   -.208E+02 -.283E+02 0.208E+02   0.101E+02 0.471E+02 -.222E+02   0.102E+02 -.180E+02 0.141E+01
   -.734E+01 0.597E+02 -.151E+02   0.175E+02 -.783E+02 0.150E+02   -.100E+02 0.179E+02 0.367E-02
   0.856E+01 0.766E+02 -.173E+02   -.197E+02 -.966E+02 0.175E+02   0.109E+02 0.192E+02 -.209E+00
   0.999E+02 -.173E+02 0.133E+02   -.129E+03 0.171E+02 -.139E+02   0.272E+02 0.201E+00 0.609E+00
   0.259E+02 -.139E+03 0.286E+03   -.276E+02 0.134E+03 -.283E+03   0.152E+01 0.383E+01 -.355E+01
   -.127E+01 0.552E+02 -.257E+03   0.146E+00 -.514E+02 0.251E+03   0.116E+01 -.320E+01 0.534E+01
   -.124E+01 0.120E+01 -.479E+01   0.526E-12 -.711E-12 -.568E-13   0.958E+00 -.144E+01 0.434E+01

 POSITION                                       TOTAL-FORCE (eV/Angst)
      2.82173      0.01810     10.11744         0.002603     -0.027777      0.003605
      0.71254      1.25231     10.11000         0.028407     -0.018908      0.009404
      1.39879      0.00881     10.11709        -0.014563     -0.000007      0.000451
      3.53500      1.26054     10.09481         0.040124      0.027432     -0.001617
      2.86685      2.51955     10.08253         0.063718      0.019490      0.016505
      0.71942      3.72584     10.09973         0.036954     -0.080043     -0.008438
      1.42997      2.49829     10.09908        -0.096467      0.034215      0.003135
      3.63612      3.75030     10.05976         0.457590     -0.275088      0.003037
      2.90333      5.01718     10.10973         0.088593      0.432042      0.001664
      0.70607      6.17200     10.11317         0.265591     -0.021264     -0.008636
      1.44889      4.95636     10.10667        -0.104401      0.077592     -0.007937
      2.86291      7.36974     10.15965         0.040698     -0.480299      0.002641
      0.68676      8.62175     10.12572         0.022040      0.035396      0.003739
      1.41869      7.40090     10.12796        -0.070353     -0.036342      0.010593
      3.56521      8.64233     10.18356         0.525635      0.246155      0.036540
      2.82389      9.86068     10.15094         0.028439     -0.014893     -0.001729
      0.69042     11.09475     10.12554         0.041950      0.008354     -0.006878
      1.39423      9.85746     10.13208        -0.078287     -0.031681     -0.004720
      3.51676     11.11019     10.14405         0.015985      0.009488     -0.000640
      7.05628     12.31830     10.14060        -0.035170     -0.010489     -0.012818
      4.95400      1.25743     10.09306         0.026119     -0.032844     -0.000137
      5.64647      0.01104     10.13360         0.026796     -0.032933     -0.009336
      7.76740      1.21914     10.10591        -0.004840     -0.017728     -0.018461
      7.09412      2.46543     10.04034         0.410472      0.309349     -0.018802
      5.64538      2.50506     10.04037        -0.422142      0.283371      0.006283
      7.05463      9.82890     10.20086         0.360597     -0.309511     -0.009632
      4.93709     11.10921     10.16091         0.044999      0.009078     -0.012128
      5.61273      9.85895     10.20351        -0.388160     -0.323851     -0.012138
      7.74828     11.07582     10.16647        -0.044020      0.014217     -0.009109
     11.30610     12.32456     10.12984         0.022186     -0.036456     -0.009491
      9.18687      1.22152     10.11484        -0.034213      0.005182     -0.017354
      9.88318     12.31278     10.13774        -0.009573     -0.015637     -0.010564
     12.01460      1.23826     10.11704        -0.038522      0.020959      0.008054
     11.30942      2.47516     10.10629         0.095722      0.014100     -0.000990
      9.13338      3.68535     10.04127        -0.512913     -0.284125     -0.043559
      9.88066      2.46884     10.09378        -0.079578      0.037711     -0.022629
     12.01248      3.71323     10.09777        -0.029324     -0.054673     -0.012732
     11.27575      4.93386     10.08713         0.104177      0.065678     -0.000538
      9.83069      4.96541     10.05713        -0.117468      0.493938      0.017005
     11.99194      6.16300     10.09915        -0.265229     -0.038317     -0.006395
     11.25272      7.37825     10.10362         0.072066     -0.032389      0.020954
      9.07510      8.58570     10.15730        -0.439202      0.235476      0.029281
      9.79730      7.32175     10.10255         0.003360     -0.458614      0.014819
     11.98109      8.60900     10.11866        -0.020248      0.058458      0.004858
     11.27362      9.83731     10.12856         0.075562     -0.058945     -0.001071
      9.16934     11.07347     10.15462        -0.029775      0.013713     -0.005652
      9.83831      9.81536     10.14624        -0.028233     -0.010801     -0.003306
     11.99283     11.08113     10.12899        -0.044991      0.059033     -0.009599
      3.57210      6.20836     10.15971        -0.950983     -0.007887     -0.004566
      5.01568      3.72520     10.00365        -0.467254     -0.809248      0.066485
      7.77149      3.64494      9.98204         0.367800     -0.700707      0.159681
      4.93457      8.66601     10.22938        -0.703298      0.880352     -0.044811
      7.69192      8.60634     10.21683         0.660270      0.867948      0.007322
      9.12103      6.13025     10.06018         0.914834      0.043045      0.016983
      6.56670      5.10498      9.73683         0.122043     -0.658026     -0.255379
      6.18983      7.17241     10.51445         0.063878      0.577708      0.148754
    total drift:                               -0.008120      0.021922      0.013575

  FREE ENERGIE OF THE ION-ELECTRON SYSTEM (eV)
  free  energy   TOTEN  =      -583.50198656 eV

  energy  without entropy=     -583.50197538  energy(sigma->0) =     -583.50198097

 stress matrix after NEB project (eV)
    -40.51373    -10.46997     -0.10259
    -10.47063    -45.10721      0.79377
     -0.10369      0.78214     -0.40720
  FORCES: max atom, RMS     1.127677    0.422826
  FORCE total and by dimension    3.164141    0.950983
  Stress total and by dimension   62.423603   45.107214
 writing wavefunctions

 total charge

[...]

 magnetization (x)

# of ion       s       p       d       tot
    1        0.000   0.004   0.000   0.004
    2        0.000   0.002   0.000   0.002
    3       -0.000  -0.003   0.000  -0.004
    4       -0.000  -0.003   0.000  -0.003
    5        0.001   0.003   0.000   0.004
    6        0.000   0.002   0.000   0.002
    7       -0.000  -0.004   0.000  -0.004
    8       -0.000  -0.006   0.000  -0.006
    9        0.001   0.005   0.000   0.006
   10        0.000  -0.001   0.000  -0.001
   11       -0.000  -0.003   0.000  -0.004
   12        0.000   0.007   0.000   0.007
   13        0.000   0.004   0.000   0.004
   14       -0.000  -0.001   0.000  -0.002
   15       -0.001  -0.013   0.000  -0.014
   16        0.001   0.006   0.000   0.007
   17        0.000   0.001   0.000   0.001
   18       -0.000  -0.003   0.000  -0.004
   19       -0.000  -0.006   0.000  -0.007
   20       -0.000   0.000   0.000  -0.000
   21        0.000   0.001   0.000   0.002
   22        0.000   0.001   0.000   0.001
   23       -0.000   0.001   0.000   0.001
   24       -0.001  -0.004   0.000  -0.005
   25       -0.001  -0.002   0.000  -0.003
   26        0.000   0.002   0.000   0.003
   27        0.000   0.001   0.000   0.001
   28        0.001   0.003   0.000   0.003
   29        0.000   0.000   0.000   0.001
   30       -0.000  -0.002   0.000  -0.002
   31       -0.000  -0.004   0.000  -0.004
   32        0.000   0.004   0.000   0.004
   33        0.000   0.000   0.000   0.000
   34       -0.000  -0.003   0.000  -0.003
   35       -0.000  -0.006   0.000  -0.006
   36        0.001   0.003   0.000   0.004
   37        0.000   0.001   0.000   0.001
   38       -0.000  -0.001   0.000  -0.001
   39        0.000   0.002   0.000   0.002
   40       -0.000  -0.003   0.000  -0.003
   41        0.000  -0.000   0.000  -0.000
   42       -0.001  -0.011   0.000  -0.012
   43        0.001   0.006   0.000   0.007
   44        0.000   0.002   0.000   0.003
   45       -0.000  -0.002   0.000  -0.002
   46       -0.000  -0.005   0.000  -0.006
   47        0.001   0.004   0.000   0.005
   48        0.000   0.000   0.000   0.000
   49       -0.002  -0.022   0.000  -0.024
   50        0.004   0.016   0.000   0.020
   51        0.000   0.005   0.000   0.005
   52        0.002   0.017   0.000   0.019
   53        0.002   0.016   0.000   0.018
   54        0.001  -0.010   0.000  -0.009
   55       -0.064  -0.048   0.958   0.846
   56       -0.042  -0.002   3.245   3.200
tot         -0.099  -0.048   4.203   4.056