 vasp.5.4.4.18Apr17-6-g9f103f2a35 (build Feb 25 2019 10:51:38) complex

 executed on             LinuxIFC date 2022.01.27  15:10:13

 INCAR:
 POTCAR:    PAW_PBE C 08Apr2002
 POTCAR:    PAW_PBE N 08Apr2002
 POTCAR:    PAW_PBE Fe 06Sep2000
 POTCAR:    PAW_PBE Zn 06Sep2000

 POTCAR:    PAW_PBE C 08Apr2002
   VRHFIN =C: s2p2

   TITEL  = PAW_PBE C 08Apr2002
   POMASS =   12.011; ZVAL   =    4.000    mass and valenz
   ENMAX  =  400.000; ENMIN  =  300.000 eV

 POTCAR:    PAW_PBE N 08Apr2002
   VRHFIN =N: s2p3

   TITEL  = PAW_PBE N 08Apr2002
   POMASS =   14.001; ZVAL   =    5.000    mass and valenz
   ENMAX  =  400.000; ENMIN  =  300.000 eV

 POTCAR:    PAW_PBE Fe 06Sep2000
   VRHFIN =Fe:  d7 s1

   TITEL  = PAW_PBE Fe 06Sep2000
   POMASS =   55.847; ZVAL   =    8.000    mass and valenz
   ENMAX  =  267.882; ENMIN  =  200.911 eV

 POTCAR:    PAW_PBE Zn 06Sep2000
   VRHFIN =Zn: d10 p2

   TITEL  = PAW_PBE Zn 06Sep2000
   POMASS =   65.390; ZVAL   =   12.000    mass and valenz
   ENMAX  =  276.723; ENMIN  =  207.542 eV

  PAW_PBE C 08Apr2002                   :
  PAW_PBE N 08Apr2002                   :
  PAW_PBE Fe 06Sep2000                  :
  PAW_PBE Zn 06Sep2000                  :

 POSCAR:  C  N Fe Zn
  positions in cartesian coordinates
 exchange correlation table for  LEXCH =        8
   RHO(1)=    0.500       N(1)  =     2000
   RHO(2)=  100.500       N(2)  =     4000

 VTST: version 3.2, (02/03/18)

 CHAIN: initializing optimizer

 OPT: Using VASP Conjugate-Gradient optimizer
 CHAIN: Read ICHAIN            0

 POSCAR:  C  N Fe Zn
  positions in cartesian coordinates

 ion  position               nearest neighbor table
   1  0.228  1.000  0.493-   3 1.44  18 1.47   4 1.47
   2  0.059  0.100  0.504-   7 1.43  33 1.44   3 1.44
   3  0.116  0.000  0.500-   2 1.44  16 1.44   1 1.44
   4  0.282  0.104  0.490-  20 1.44   5 1.46   1 1.47
   5  0.223  0.205  0.492-  50 1.39   7 1.44   4 1.46
   6  0.052  0.299  0.507-  37 1.41  10 1.42   7 1.44
   7  0.112  0.201  0.501-   2 1.43   6 1.44   5 1.44
   8  0.210  0.400  0.491-  10 1.39  50 1.39  11 1.43
   9  0.050  0.500  0.509-  41 1.41  14 1.42  10 1.43
  10  0.104  0.400  0.504-   8 1.39   6 1.42   9 1.43
  11  0.264  0.498  0.479-  54 1.34   8 1.43  12 1.45
  12  0.211  0.601  0.489-  51 1.37  14 1.40  11 1.45
  13  0.053  0.701  0.507-  45 1.41  14 1.42  17 1.44
  14  0.104  0.600  0.503-  12 1.40  13 1.42   9 1.42
  15  0.222  0.795  0.492-  51 1.38  17 1.44  18 1.47
  16  0.058  0.900  0.504-  17 1.43  49 1.43   3 1.44
  17  0.111  0.799  0.501-  16 1.43  15 1.44  13 1.44
  18  0.282  0.896  0.490-  28 1.45   1 1.47  15 1.47
  19  0.558  0.001  0.498-  21 1.42  22 1.43  29 1.43
  20  0.395  0.104  0.490-  52 1.39   4 1.44  21 1.45
  21  0.448  0.001  0.492-  19 1.42  20 1.45  28 1.45
  22  0.614  0.101  0.502-  31 1.42  23 1.42  19 1.43
  23  0.558  0.200  0.497-  52 1.38  22 1.42  24 1.45
  24  0.612  0.302  0.501-  35 1.41  53 1.42  23 1.45
  25  0.608  0.500  0.501-  55 1.39  53 1.41  39 1.44
  26  0.613  0.698  0.502-  55 1.40  43 1.41  27 1.47
  27  0.558  0.802  0.498-  56 1.36  29 1.43  26 1.47
  28  0.395  0.898  0.489-  56 1.38  18 1.45  21 1.45
  29  0.614  0.901  0.502-  47 1.42  27 1.43  19 1.43
  30  0.891  0.000  0.510-  32 1.42  49 1.43  33 1.43
  31  0.724  0.100  0.508-  36 1.41  22 1.42  32 1.43
  32  0.780  0.000  0.509-  30 1.42  47 1.43  31 1.43
  33  0.947  0.100  0.509-  30 1.43  34 1.43   2 1.44
  34  0.889  0.199  0.511-  37 1.42  36 1.42  33 1.43
  35  0.722  0.300  0.508-  24 1.41  40 1.43  36 1.44
  36  0.778  0.199  0.510-  31 1.41  34 1.42  35 1.44
  37  0.943  0.299  0.512-   6 1.41  34 1.42  38 1.44
  38  0.886  0.400  0.514-  40 1.41  41 1.43  37 1.44
  39  0.720  0.500  0.509-  40 1.43  44 1.43  25 1.44
  40  0.776  0.400  0.511-  38 1.41  35 1.43  39 1.43
  41  0.940  0.500  0.514-   9 1.41  42 1.43  38 1.43
  42  0.886  0.600  0.514-  44 1.42  41 1.43  45 1.44
  43  0.722  0.701  0.509-  26 1.41  44 1.43  48 1.44
  44  0.776  0.600  0.512-  42 1.42  43 1.43  39 1.43
  45  0.942  0.701  0.512-  13 1.41  46 1.42  42 1.44
  46  0.889  0.801  0.512-  45 1.42  48 1.42  49 1.43
  47  0.724  0.901  0.508-  48 1.42  29 1.42  32 1.43
  48  0.778  0.801  0.511-  47 1.42  46 1.42  43 1.44
  49  0.947  0.900  0.509-  30 1.43  16 1.43  46 1.43
  50  0.269  0.306  0.485-   8 1.39   5 1.39  57 1.91
  51  0.267  0.694  0.485-  12 1.37  15 1.38  58 2.01
  52  0.451  0.200  0.489-  23 1.38  20 1.39  57 1.98
  53  0.556  0.400  0.496-  25 1.41  24 1.42  57 1.98
  54  0.364  0.491  0.459-  11 1.34  57 1.86  58 1.99
  55  0.559  0.599  0.498-  25 1.39  26 1.40  58 2.00
  56  0.452  0.803  0.488-  27 1.36  28 1.38  58 2.08
  57  0.411  0.353  0.478-  54 1.86  50 1.91  52 1.98  53 1.98
  58  0.414  0.642  0.472-  54 1.99  55 2.00  51 2.01  56 2.08

  LATTYP: Found a simple orthorhombic cell.
 ALAT       =    12.4000000000
 B/A-ratio  =     1.0330645161
 C/A-ratio  =     1.6129032258

  Lattice vectors:

 A1 = (   0.0000000000, -12.4000000000,   0.0000000000)
 A2 = ( -12.8100000000,   0.0000000000,   0.0000000000)
 A3 = (   0.0000000000,   0.0000000000, -20.0000000000)

Analysis of symmetry for initial positions (statically):
 Subroutine PRICEL returns:
 Original cell was already a primitive cell.

 Routine SETGRP: Setting up the symmetry group for a
 simple orthorhombic supercell.

 Subroutine GETGRP returns: Found  1 space group operations
 (whereof  1 operations were pure point group operations)
 out of a pool of  8 trial point group operations.

The static configuration has the point symmetry C_1 .

Analysis of symmetry for dynamics (positions and initial velocities):
 Subroutine PRICEL returns:
 Original cell was already a primitive cell.

[...]

The dynamic configuration has the point symmetry C_1 .

Analysis of structural, dynamic, and magnetic symmetry:
 Subroutine PRICEL returns:
 Original cell was already a primitive cell.

 Routine SETGRP: Setting up the symmetry group for a
 simple orthorhombic supercell.

 Subroutine GETGRP returns: Found  1 space group operations
 (whereof  1 operations were pure point group operations)
 out of a pool of  8 trial point group operations.

The magnetic configuration has the point symmetry C_1 .

 Subroutine INISYM returns: Found  1 space group operations
 (whereof  1 operations are pure point group operations),
 and found     1 'primitive' translations

 KPOINTS: KPOINTS created by Atomic Simulation Env

Automatic generation of k-mesh.
Space group operators:
 irot       det(A)        alpha          n_x          n_y          n_z        tau_x        tau_y        tau_z
    1     1.000000     0.000000     1.000000     0.000000     0.000000     0.000000     0.000000     0.000000

 Subroutine IBZKPT returns following result:

 Found      2 irreducible k-points:

 Following reciprocal coordinates:
            Coordinates               Weight
  0.250000  0.250000  0.000000      2.000000
 -0.250000  0.250000  0.000000      2.000000

 Following cartesian coordinates:
            Coordinates               Weight
  0.019516  0.020161  0.000000      2.000000
 -0.019516  0.020161  0.000000      2.000000

 Subroutine IBZKPT_HF returns following result:

 Found      4 k-points in 1st BZ
 the following      4 k-points will be used (e.g. in the exchange kernel)
 Following reciprocal coordinates:   # in IRBZ
  0.250000  0.250000  0.000000    0.25000000   1 t-inv F
 -0.250000  0.250000  0.000000    0.25000000   2 t-inv F
 -0.250000 -0.250000  0.000000    0.25000000   1 t-inv T
  0.250000 -0.250000  0.000000    0.25000000   2 t-inv T

 SYSTEM =  unknown system
 POSCAR =   C  N Fe Zn

 Startparameter for this run:
   NWRITE =      2    write-flag & timer
   PREC   = accura    normal or accurate (medium, high low for compatibility)
   ISTART =      1    job   : 0-new  1-cont  2-samecut
   ICHARG =      0    charge: 1-file 2-atom 10-const
   ISPIN  =      2    spin polarized calculation?
   LNONCOLLINEAR =      F non collinear calculations
   LSORBIT =      F    spin-orbit coupling
   INIWAV =      1    electr: 0-lowe 1-rand  2-diag
   LASPH  =      T    aspherical Exc in radial PAW
   METAGGA=      F    non-selfconsistent MetaGGA calc.

 Electronic Relaxation 1
   ENCUT  =  500.0 eV  36.75 Ry    6.06 a.u.  23.36 22.61 36.46*2*pi/ulx,y,z
   ENINI  =  500.0     initial cutoff
   ENAUG  =  644.9 eV  augmentation charge cutoff
   NELM   =    250;   NELMIN=  2; NELMDL=  0     # of ELM steps
   EDIFF  = 0.1E-03   stopping-criterion for ELM
   LREAL  =      F    real-space projection
   NLSPLINE    = F    spline interpolate recip. space projectors
   LCOMPAT=      F    compatible to vasp.4.4
   GGA_COMPAT  = T    GGA compatible to vasp.4.4-vasp.4.6
   LMAXPAW     = -100 max onsite density
   LMAXMIX     =    2 max onsite mixed and CHGCAR
   VOSKOWN=      0    Vosko Wilk Nusair interpolation
   ROPT   =    0.00000   0.00000   0.00000   0.00000
 Ionic relaxation
   EDIFFG = -.3E-01   stopping-criterion for IOM
   NSW    =      0    number of steps for IOM
   NBLOCK =      1;   KBLOCK =      1    inner block; outer block
   IBRION =     -1    ionic relax: 0-MD 1-quasi-New 2-CG
   NFREE  =      1    steps in history (QN), initial steepest desc. (CG)
   ISIF   =      2    stress and relaxation
   IWAVPR =     10    prediction:  0-non 1-charg 2-wave 3-comb
   ISYM   =      3    0-nonsym 1-usesym 2-fastsym
   LCORR  =      T    Harris-Foulkes like correction to forces

   POTIM  = 0.5000    time-step for ionic-motion
   TEIN   =    0.0    initial temperature
   TEBEG  =    0.0;   TEEND  =   0.0 temperature during run
   SMASS  =  -3.00    Nose mass-parameter (am)
   estimated Nose-frequenzy (Omega)   =  0.10E-29 period in steps =****** mass=  -0.375E-26a.u.
   SCALEE = 1.0000    scale energy and forces
   NPACO  =    256;   APACO  = 16.0  distance and # of slots for P.C.
   PSTRESS=    0.0 pullay stress

  Mass of Ions in am
   POMASS =  12.01 14.00 55.85 65.39
  Ionic Valenz
   ZVAL   =   4.00  5.00  8.00 12.00
  Atomic Wigner-Seitz radii
  virtual crystal weights
   VCA    =   1.00  1.00  1.00  1.00
   NELECT =     251.0000    total number of electrons
   NUPDOWN=      -1.0000    fix difference up-down

 DOS related values:
   EMIN   =  10.00;   EMAX   =-10.00  energy-range for DOS
   EFERMI =   0.00
   ISMEAR =     0;   SIGMA  =   0.10  broadening in eV -4-tet -1-fermi 0-gaus

 Electronic relaxation 2 (details)
   IALGO  =     53    algorithm
   LDIAG  =      T    sub-space diagonalisation (order eigenvalues)
   LSUBROT=      F    optimize rotation matrix (better conditioning)
   TURBO    =      0    0=normal 1=particle mesh
   IRESTART =      0    0=no restart 2=restart with 2 vectors
   NREBOOT  =      0    no. of reboots
   NMIN     =      0    reboot dimension
   EREF     =   0.00    reference energy to select bands
   IMIX   =      4    mixing-type and parameters
     AMIX     =   0.40;   BMIX     =  1.00
     AMIX_MAG =   1.60;   BMIX_MAG =  1.00
     AMIN     =   0.10
     WC   =   100.;   INIMIX=   1;  MIXPRE=   1;  MAXMIX= -45

 Intra band minimization:
   WEIMIN = 0.0000     energy-eigenvalue tresh-hold
   EBREAK =  0.16E-06  absolut break condition
   DEPER  =   0.30     relativ break condition

[...]
   33        0.863   1.764   0.000   2.626
   34        0.869   1.772   0.000   2.641
   35        0.868   1.779   0.000   2.647
   36        0.866   1.780   0.000   2.646
   37        0.867   1.787   0.000   2.655
   38        0.866   1.778   0.000   2.644
   39        0.863   1.767   0.000   2.630
   40        0.869   1.776   0.000   2.645
   41        0.872   1.783   0.000   2.656
   42        0.866   1.776   0.000   2.642
   43        0.868   1.779   0.000   2.647
   44        0.867   1.769   0.000   2.637
   45        0.866   1.784   0.000   2.651
   46        0.868   1.771   0.000   2.639
   47        0.868   1.785   0.000   2.653
   48        0.865   1.779   0.000   2.644
   49        0.863   1.765   0.000   2.628
   50        1.228   2.662   0.000   3.890
   51        1.232   2.679   0.000   3.910
   52        1.229   2.659   0.000   3.888
   53        1.217   2.632   0.000   3.849
   54        1.255   2.562   0.000   3.817
   55        1.217   2.664   0.000   3.882
   56        1.232   2.670   0.000   3.902
   57        0.446   0.602   6.230   7.278
   58        0.478   0.484   9.906  10.868
tot         51.825 105.790  16.136 173.751

 magnetization (x)

[...]

  FORCE on cell =-STRESS in cart. coord.  units (eV):
  Direction    XX          YY          ZZ          XY          YZ          ZX
  Alpha Z   108.67057   108.67057   108.67057
  Ewald   49760.57270 50190.64035-58863.42925    12.57519    25.00739     3.87857
  Hartree 49627.02969 49900.80867-48709.64521    17.82066    26.19485    51.70007
  E(xc)    -751.73191  -751.01285  -765.56669     0.11001    -0.00228    -0.07862
  Local  ************************104463.23815   -31.68393   -52.20528   -61.01899
  n-local  -142.77985  -131.78451  -134.58421    -1.60921     0.88872     0.44615
  augment    47.80777    47.90130    48.64213    -0.34012     1.23064    -0.48962
  Kinetic  3753.12839  3662.97426  4219.46978     3.90716     0.19177     4.31310
  Fock     -392.19418  -393.13699  -367.92875    -0.02798    -1.48165     1.89873
  Total     -17.67366   -73.02274    -1.13348     0.75178    -0.17583     0.64938
  in kB      -8.91325   -36.82713    -0.57164     0.37914    -0.08868     0.32750

 VOLUME and BASIS-vectors are now :
  energy-cutoff  :      500.00
  volume of cell :     3176.88
      direct lattice vectors                 reciprocal lattice vectors
    12.810000000  0.000000000  0.000000000     0.078064012  0.000000000  0.000000000
     0.000000000 12.400000000  0.000000000     0.000000000  0.080645161  0.000000000
     0.000000000  0.000000000 20.000000000     0.000000000  0.000000000  0.050000000

  length of vectors
    12.810000000 12.400000000 20.000000000     0.078064012  0.080645161  0.050000000

 FORCES acting on ions:
    Electron-Ion                     Ewald-Force                    Non-Local-Force
   0.118E+01 -.392E+01 0.167E+02   -.114E+01 0.382E+01 -.166E+02   -.332E-01 0.965E-01 -.107E+00
   0.732E+00 0.819E+01 -.164E+02   -.618E+00 -.851E+01 0.165E+02   -.138E+00 0.302E+00 -.850E-01
   0.254E-01 -.157E+01 -.866E+00   0.806E-01 0.158E+01 0.736E+00   -.116E+00 -.208E-02 0.133E+00
   0.146E+02 0.129E+02 0.279E+02   -.148E+02 -.130E+02 -.281E+02   0.142E+00 0.731E-01 0.187E+00
   0.113E+02 0.499E+02 0.169E+02   -.128E+02 -.531E+02 -.166E+02   0.145E+01 0.335E+01 -.230E+00
   0.871E+01 0.166E+02 -.376E+02   -.903E+01 -.168E+02 0.377E+02   0.269E+00 0.220E+00 -.100E+00
   0.890E+01 0.165E+02 -.131E+02   -.909E+01 -.168E+02 0.131E+02   0.209E+00 0.234E+00 0.468E-02
   0.394E+02 -.410E+01 0.542E+01   -.410E+02 0.728E+01 -.508E+01   0.163E+01 -.342E+01 -.343E+00
   0.898E+01 0.177E+01 -.501E+02   -.909E+01 -.174E+01 0.501E+02   0.903E-01 -.472E-01 -.614E-01
   0.269E+02 0.339E+01 -.385E+02   -.273E+02 -.313E+01 0.387E+02   0.438E+00 -.219E+00 -.168E+00
   0.753E+02 0.456E+01 0.556E+02   -.759E+02 -.455E+01 -.559E+02   0.114E+01 -.536E-01 0.106E+00
   0.526E+02 0.227E+02 0.164E+02   -.545E+02 -.258E+02 -.164E+02   0.175E+01 0.323E+01 -.375E-01
   0.122E+02 -.149E+02 -.362E+02   -.125E+02 0.150E+02 0.363E+02   0.168E+00 -.159E+00 -.111E+00
   0.293E+02 0.329E+00 -.339E+02   -.296E+02 -.637E+00 0.341E+02   0.318E+00 0.311E+00 -.181E+00
   0.200E+02 -.630E+02 0.132E+02   -.215E+02 0.662E+02 -.129E+02   0.144E+01 -.330E+01 -.373E+00
   0.167E+01 -.116E+02 -.163E+02   -.157E+01 0.119E+02 0.164E+02   -.128E+00 -.300E+00 -.740E-01
   0.142E+02 -.188E+02 -.126E+02   -.143E+02 0.192E+02 0.126E+02   0.925E-01 -.306E+00 0.780E-01
   0.185E+02 -.199E+02 0.270E+02   -.186E+02 0.199E+02 -.271E+02   0.757E-01 0.506E-01 0.953E-01
   -.995E+01 -.448E+01 -.192E+01   0.101E+02 0.441E+01 0.173E+01   -.195E+00 0.814E-01 0.183E+00
   0.247E+02 0.285E+02 0.263E+02   -.270E+02 -.310E+02 -.262E+02   0.245E+01 0.268E+01 -.184E-01
   0.148E+02 -.641E+01 0.160E+02   -.152E+02 0.627E+01 -.159E+02   0.436E+00 0.957E-01 -.508E-01
   -.101E+02 0.705E+01 -.163E+02   0.109E+02 -.697E+01 0.165E+02   -.658E+00 -.305E-01 -.224E+00
   -.403E+02 0.113E+02 -.710E+01   0.434E+02 -.115E+02 0.748E+01   -.326E+01 0.171E-01 -.439E+00
   -.222E+02 0.245E+02 -.156E+02   0.241E+02 -.266E+02 0.160E+02   -.171E+01 0.231E+01 -.294E+00
   -.270E+02 0.169E+02 -.216E+02   0.304E+02 -.173E+02 0.219E+02   -.351E+01 0.230E+00 -.320E+00
   -.384E+02 -.346E+02 -.297E+02   0.405E+02 0.372E+02 0.301E+02   -.191E+01 -.261E+01 -.308E+00
   -.579E+02 -.211E+02 -.144E+02   0.611E+02 0.213E+02 0.150E+02   -.321E+01 -.156E+00 -.582E+00
   0.296E+02 -.465E+02 0.280E+02   -.320E+02 0.489E+02 -.279E+02   0.246E+01 -.255E+01 -.371E-01
   -.145E+02 -.147E+02 -.203E+02   0.152E+02 0.146E+02 0.204E+02   -.685E+00 0.115E+00 -.208E+00
   -.544E+01 -.104E+01 -.312E+02   0.548E+01 0.104E+01 0.312E+02   -.104E+00 -.204E-02 -.138E-01
   -.736E+01 0.523E+01 -.285E+02   0.780E+01 -.524E+01 0.285E+02   -.400E+00 0.436E-01 -.148E-02
   -.567E+01 -.169E+01 -.331E+02   0.585E+01 0.167E+01 0.331E+02   -.122E+00 0.147E-02 -.771E-01
   -.397E+01 0.224E+01 -.291E+02   0.408E+01 -.227E+01 0.291E+02   -.956E-01 0.325E-01 0.235E-01
   -.294E+01 0.880E+01 -.392E+02   0.302E+01 -.889E+01 0.392E+02   -.723E-01 0.770E-01 -.169E-01
   -.180E+02 0.113E+02 -.331E+02   0.181E+02 -.118E+02 0.331E+02   -.338E+00 0.370E+00 -.333E-01
   -.545E+01 0.215E+00 -.363E+02   0.561E+01 -.586E+00 0.364E+02   -.133E+00 0.281E+00 -.631E-01
   0.611E+01 0.291E+01 -.488E+02   -.621E+01 -.299E+01 0.489E+02   0.153E+00 0.349E-01 -.787E-01
   -.371E+01 0.679E+01 -.553E+02   0.387E+01 -.690E+01 0.553E+02   -.188E+00 0.126E+00 -.568E-01
   -.191E+02 0.391E+01 -.396E+02   0.197E+02 -.395E+01 0.396E+02   -.472E+00 0.728E-01 -.493E-01
   -.707E+01 0.357E+01 -.433E+02   0.745E+01 -.360E+01 0.433E+02   -.332E+00 0.121E+00 -.244E-01
   0.880E+01 0.942E+00 -.595E+02   -.874E+01 -.931E+00 0.596E+02   -.583E-01 -.409E-02 -.649E-01
   -.397E+01 -.516E+01 -.557E+02   0.411E+01 0.526E+01 0.557E+02   -.183E+00 -.127E+00 -.251E-01
   -.256E+02 -.120E+02 -.401E+02   0.257E+02 0.125E+02 0.401E+02   -.314E+00 -.422E+00 -.344E-01
   -.102E+02 0.219E-01 -.474E+02   0.105E+02 0.294E-02 0.474E+02   -.233E+00 -.114E+00 -.795E-01
   0.591E+01 -.255E+01 -.496E+02   -.599E+01 0.262E+01 0.497E+02   0.160E+00 -.280E-01 -.976E-01
   -.422E+01 -.916E+01 -.412E+02   0.429E+01 0.923E+01 0.412E+02   -.714E-01 -.645E-01 -.462E-02
   -.959E+01 -.803E+01 -.333E+02   0.100E+02 0.802E+01 0.333E+02   -.398E+00 -.425E-01 -.362E-01
   -.766E+01 -.232E+01 -.407E+02   0.784E+01 0.272E+01 0.408E+02   -.148E+00 -.287E+00 -.669E-01
   -.307E+01 -.373E+01 -.304E+02   0.320E+01 0.378E+01 0.304E+02   -.944E-01 -.338E-01 0.518E-02
   -.726E+01 0.538E+02 0.598E+02   0.256E+02 -.527E+02 -.641E+02   -.176E+02 -.972E+00 0.404E+01
   0.304E+02 -.605E+02 0.472E+02   -.871E+01 0.601E+02 -.506E+02   -.204E+02 0.368E+00 0.325E+01
   0.317E+02 0.896E+00 0.377E+02   -.424E+02 0.165E+02 -.402E+02   0.102E+02 -.166E+02 0.246E+01
   0.153E+02 -.518E+01 -.460E+01   -.353E+02 0.514E+01 0.208E+01   0.191E+02 0.212E+00 0.240E+01
   -.537E+02 0.447E+02 0.285E+03   0.737E+02 -.446E+02 -.295E+03   -.193E+02 0.341E+00 0.995E+01
   -.271E+02 0.309E+02 -.450E+02   0.624E+01 -.308E+02 0.443E+02   0.197E+02 -.177E+00 0.677E+00
   0.255E+02 -.407E+02 0.388E+02   -.380E+02 0.214E+02 -.413E+02   0.117E+02 0.182E+02 0.245E+01
   -.452E+02 0.529E+02 0.154E+03   0.440E+02 -.508E+02 -.154E+03   0.164E+01 -.249E+01 0.233E+00
   -.432E+02 -.401E+02 0.355E+03   0.409E+02 0.361E+02 -.353E+03   0.198E+01 0.367E+01 -.197E+01
   -.269E+01 -.319E+01 -.208E+02   -.497E-13 -.128E-12 0.171E-12   0.251E+01 0.282E+01 0.191E+02

 POSITION                                       TOTAL-FORCE (eV/Angst)
      2.91719     12.39879      9.86359        -0.010165     -0.000959      0.001679
      0.75317      1.23774     10.07609        -0.031096     -0.003934     -0.011829
      1.47978      0.00079      9.99545        -0.017924      0.004318      0.011399
      3.61296      1.29422      9.80632        -0.029329     -0.040318      0.019026
      2.85738      2.54422      9.83816        -0.003917      0.350045      0.023634
      0.67153      3.70570     10.13956        -0.047782      0.043505     -0.040386
      1.43328      2.49329     10.02310         0.028317     -0.031463     -0.019078
      2.69254      4.95431      9.81383         0.070400     -0.425452     -0.026769
      0.63826      6.19936     10.17301        -0.028278     -0.017593     -0.070812
      1.32983      4.95685     10.07496         0.053784      0.023437     -0.056599
      3.38649      6.17999      9.57654         0.655090     -0.056826     -0.216412
      2.70433      7.44634      9.78205        -0.062025      0.308759      0.012488
      0.67270      8.68825     10.13070        -0.071489     -0.012462     -0.037326
      1.33326      7.43454     10.05825         0.099717      0.023851     -0.061333
      2.84638      9.85221      9.83433        -0.007058     -0.301279      0.000002
      0.74780     11.16413     10.07455        -0.040473     -0.038188     -0.006699
      1.42283      9.90965     10.01660         0.015213      0.014181     -0.001723
      3.61372     11.10935      9.80060        -0.014732      0.070336      0.011866
      7.15214      0.00659      9.96863        -0.075798      0.023164      0.007061
      5.05556      1.29484      9.79744         0.218919      0.354011      0.012533
      5.73688      0.01586      9.84745         0.095845     -0.048434      0.006039
      7.86253      1.24712     10.03962         0.045910      0.048948     -0.022626
      7.15139      2.47849      9.94868        -0.330178     -0.170649     -0.078203
      7.84526      3.74949     10.01574         0.106421      0.258658      0.010102
      7.79151      6.19903     10.01714        -0.298561     -0.105279     -0.037815
      7.84828      8.65014     10.04200         0.174883     -0.142629      0.011174
      7.14519      9.93875      9.95026        -0.210616      0.123154     -0.049267
      5.05999     11.13096      9.78295         0.164856     -0.221532      0.027776
      7.86511     11.16648     10.04755         0.008998     -0.068385     -0.029238
     11.41801      0.00201     10.19502        -0.067140     -0.002662     -0.014387
      9.27864      1.23799     10.15378         0.018680      0.043042     -0.000845
      9.99426      0.00371     10.18935         0.060720     -0.013066     -0.010512
     12.13065      1.23964     10.17709         0.008786      0.002354     -0.009181
     11.39150      2.46751     10.22502        -0.004763      0.006571     -0.027179
      9.24587      3.71421     10.16158        -0.185866     -0.065492     -0.043057
      9.96919      2.47218     10.19968         0.021857     -0.085571     -0.021717
     12.07420      3.71015     10.24331         0.071798     -0.050687     -0.044356
     11.35307      4.95441     10.28212        -0.046965      0.032188     -0.050119
      9.22146      6.19454     10.18029         0.136281      0.032192     -0.002410
      9.94099      4.95990     10.22748         0.033887      0.095875     -0.027277
     12.04731      6.19950     10.28144        -0.000201      0.006712     -0.058502
     11.35074      7.44309     10.28502        -0.063038     -0.037122     -0.046401
      9.24787      8.68937     10.18279        -0.225428      0.051358     -0.043783
      9.93588      7.43690     10.23942         0.079252     -0.091696     -0.032734
     12.07274      8.68703     10.24508         0.086654      0.049356     -0.045992
     11.39207      9.93263     10.23257        -0.012779     -0.011544     -0.025226
      9.28017     11.16904     10.16707         0.029828     -0.054258     -0.023508
      9.97046      9.93208     10.21545         0.025490      0.103415     -0.025756
     12.12793     11.16318     10.18051         0.022627      0.014596     -0.017343
      3.45113      3.79520      9.70388        -0.740185     -0.005091      0.107415
      3.42153      8.61020      9.70058        -0.552018      0.053265      0.078232
      5.78223      2.48443      9.78528         0.364686     -0.669308      0.206665
      7.12091      4.96118      9.91597         0.710656      0.188285      0.092301
      4.66389      6.09418      9.17751        -0.969744      0.512390      0.510801
      7.15948      7.43274      9.96226         0.512666     -0.092170     -0.001367
      5.79536      9.96062      9.76016         0.246613      0.474223      0.117361
      5.26235      4.37726      9.55654         0.035237     -0.319836     -0.018135
      5.30541      7.96428      9.43759        -0.056523     -0.128302      0.088346
    total drift:                               -0.003844      0.003604     -0.008387

  FREE ENERGIE OF THE ION-ELECTRON SYSTEM (eV)
  free  energy   TOTEN  =      -600.72749344 eV

  energy  without entropy=     -600.72743884  energy(sigma->0) =     -600.72746614

 stress matrix after NEB project (eV)
    -17.67366      0.75238      0.64938
      0.75178    -73.02274     -0.17623
      0.64677     -0.17583     -1.13348
  FORCES: max atom, RMS     1.209903    0.326468
  FORCE total and by dimension    2.486308    0.969744
  Stress total and by dimension   75.153153   73.022737
 writing wavefunctions

 total charge

[...]

 magnetization (x)

# of ion       s       p       d       tot
    1        0.001   0.003   0.000   0.003
    2        0.000   0.002   0.000   0.003
    3       -0.001  -0.021   0.000  -0.022
    4       -0.001  -0.006   0.000  -0.007
    5        0.001   0.011   0.000   0.011
    6        0.000   0.002   0.000   0.002
    7       -0.001  -0.009   0.000  -0.010
    8       -0.002  -0.037   0.000  -0.039
    9       -0.002  -0.035   0.000  -0.037
   10        0.001   0.010   0.000   0.011
   11        0.002   0.015   0.000   0.017
   12       -0.002  -0.042   0.000  -0.044
   13       -0.000  -0.002   0.000  -0.002
   14        0.001   0.010   0.000   0.011
   15        0.001   0.007   0.000   0.007
   16        0.000   0.003   0.000   0.003
   17       -0.000  -0.006   0.000  -0.007
   18       -0.001  -0.010   0.000  -0.011
   19       -0.000  -0.005   0.000  -0.006
   20        0.000   0.003   0.000   0.003
   21       -0.000  -0.005   0.000  -0.006
   22        0.000   0.000   0.000   0.001
   23       -0.000  -0.004   0.000  -0.004
   24       -0.001  -0.011   0.000  -0.011
   25        0.000   0.003   0.000   0.004
   26       -0.001  -0.011   0.000  -0.012
   27       -0.000  -0.004   0.000  -0.004
   28        0.001   0.005   0.000   0.006
   29        0.000  -0.001   0.000  -0.001
   30        0.000   0.002   0.000   0.002
   31        0.000   0.002   0.000   0.002
   32       -0.000  -0.007   0.000  -0.007
   33       -0.000  -0.003   0.000  -0.003
   34        0.000   0.003   0.000   0.003
   35        0.000   0.002   0.000   0.002
   36       -0.000  -0.003   0.000  -0.003
   37       -0.000  -0.008   0.000  -0.009
   38       -0.001  -0.009   0.000  -0.010
   39       -0.001  -0.015   0.000  -0.015
   40        0.000  -0.002   0.000  -0.002
   41        0.001   0.008   0.000   0.009
   42       -0.001  -0.010   0.000  -0.010
   43        0.000   0.002   0.000   0.002
   44        0.000  -0.004   0.000  -0.004
   45       -0.000  -0.008   0.000  -0.008
   46        0.000   0.002   0.000   0.003
   47        0.000   0.003   0.000   0.003
   48       -0.000  -0.003   0.000  -0.003
   49       -0.000  -0.003   0.000  -0.004
   50        0.004   0.002   0.000   0.006
   51       -0.001  -0.027   0.000  -0.028
   52        0.003   0.010   0.000   0.013
   53        0.003   0.004   0.000   0.007
   54       -0.004  -0.141   0.000  -0.145
   55       -0.002  -0.021   0.000  -0.022
   56       -0.000  -0.012   0.000  -0.013
   57       -0.038  -0.022  -2.110  -2.169
   58        0.001  -0.007  -0.006  -0.012
tot         -0.037  -0.401  -2.116  -2.554