 vasp.5.4.4.18Apr17-6-g9f103f2a35 (build Feb 25 2019 10:51:38) complex

 executed on             LinuxIFC date 2021.06.17  13:25:57

 INCAR:
 POTCAR:    PAW_PBE C 08Apr2002
 POTCAR:    PAW_PBE N 08Apr2002
 POTCAR:    PAW_PBE Fe 06Sep2000
 POTCAR:    PAW_PBE V 08Apr2002

 POTCAR:    PAW_PBE C 08Apr2002
   VRHFIN =C: s2p2

   TITEL  = PAW_PBE C 08Apr2002
   POMASS =   12.011; ZVAL   =    4.000    mass and valenz
   ENMAX  =  400.000; ENMIN  =  300.000 eV

 POTCAR:    PAW_PBE N 08Apr2002
   VRHFIN =N: s2p3

[...]

 POTCAR:    PAW_PBE Fe 06Sep2000
   VRHFIN =Fe:  d7 s1

   TITEL  = PAW_PBE Fe 06Sep2000
   POMASS =   55.847; ZVAL   =    8.000    mass and valenz
   ENMAX  =  267.882; ENMIN  =  200.911 eV

 POTCAR:    PAW_PBE V 08Apr2002
   VRHFIN =V: p6 d4 s1

   TITEL  = PAW_PBE V 08Apr2002
   POMASS =   50.941; ZVAL   =    5.000    mass and valenz
   ENMAX  =  192.543; ENMIN  =  144.408 eV

  PAW_PBE C 08Apr2002                   :
  PAW_PBE N 08Apr2002                   :
  PAW_PBE Fe 06Sep2000                  :
  PAW_PBE V 08Apr2002                   :

 POSCAR:  C  N Fe  V
  positions in cartesian coordinates
 exchange correlation table for  LEXCH =        8
   RHO(1)=    0.500       N(1)  =     2000
   RHO(2)=  100.500       N(2)  =     4000

 VTST: version 3.2, (02/03/18)

 CHAIN: initializing optimizer

 OPT: Using VASP Conjugate-Gradient optimizer
 CHAIN: Read ICHAIN            0

 POSCAR:  C  N Fe  V
  positions in cartesian coordinates

 ion  position               nearest neighbor table
   1  0.222  0.002  0.500-  19 1.42   4 1.42   3 1.43
   2  0.057  0.102  0.500-   3 1.42  33 1.43   7 1.43
   3  0.110  0.002  0.500-   2 1.42  17 1.42   1 1.43
   4  0.279  0.103  0.500-  21 1.42   1 1.42   5 1.43
   5  0.226  0.205  0.500-   4 1.43   7 1.43   8 1.44
   6  0.058  0.303  0.500-   7 1.42  11 1.43  37 1.44
   7  0.113  0.203  0.500-   6 1.42   2 1.43   5 1.43
   8  0.286  0.306  0.500-  50 1.39   5 1.44   9 1.45
   9  0.230  0.408  0.500-  49 1.39   8 1.45  11 1.45
  10  0.057  0.501  0.500-  14 1.42  11 1.43  40 1.44
  11  0.116  0.403  0.500-   6 1.43  10 1.43   9 1.45
  12  0.226  0.600  0.500-  49 1.38  15 1.43  14 1.44
  13  0.055  0.700  0.500-  18 1.41  14 1.43  44 1.44
  14  0.113  0.601  0.500-  10 1.42  13 1.43  12 1.44
  15  0.279  0.702  0.500-  52 1.37  16 1.42  12 1.43
  16  0.222  0.801  0.500-  19 1.42  15 1.42  18 1.43
  17  0.054  0.901  0.500-  18 1.42   3 1.42  48 1.43
  18  0.110  0.801  0.500-  13 1.41  17 1.42  16 1.43
  19  0.277  0.902  0.500-  16 1.42  27 1.42   1 1.42
  20  0.555  0.999  0.500-  22 1.41  23 1.42  29 1.43
  21  0.390  0.103  0.500-  25 1.42   4 1.42  22 1.43
  22  0.444  0.001  0.500-  20 1.41  27 1.42  21 1.43
  23  0.611  0.100  0.500-  31 1.42  20 1.42  24 1.42
  24  0.558  0.202  0.500-  51 1.37  23 1.42  25 1.44
  25  0.445  0.204  0.500-  50 1.39  21 1.42  24 1.44
  26  0.554  0.795  0.500-  53 1.38  29 1.43  28 1.44
  27  0.389  0.900  0.500-  22 1.42  19 1.42  28 1.43
  28  0.441  0.798  0.500-  52 1.37  27 1.43  26 1.44
  29  0.609  0.898  0.500-  46 1.42  20 1.43  26 1.43
  30  0.888  0.000  0.500-  48 1.42  32 1.42  33 1.43
  31  0.722  0.100  0.500-  23 1.42  32 1.42  36 1.42
  32  0.776  0.999  0.500-  31 1.42  30 1.42  46 1.43
  33  0.944  0.101  0.500-  34 1.43  30 1.43   2 1.43
  34  0.889  0.202  0.500-  37 1.42  33 1.43  36 1.43
  35  0.718  0.300  0.500-  51 1.37  36 1.43  39 1.45
  36  0.777  0.201  0.500-  31 1.42  34 1.43  35 1.43
  37  0.945  0.302  0.500-  34 1.42  38 1.42   6 1.44
  38  0.888  0.401  0.500-  40 1.42  37 1.42  39 1.44
  39  0.774  0.403  0.500-  54 1.36  38 1.44  35 1.45
  40  0.944  0.501  0.500-  38 1.42  41 1.43  10 1.44
  41  0.885  0.599  0.500-  44 1.42  40 1.43  43 1.45
  42  0.712  0.695  0.500-  53 1.38  47 1.45  43 1.46
  43  0.771  0.594  0.500-  54 1.36  41 1.45  42 1.46
  44  0.942  0.699  0.500-  45 1.42  41 1.42  13 1.44
  45  0.886  0.798  0.500-  44 1.42  48 1.43  47 1.44
  46  0.720  0.898  0.500-  29 1.42  47 1.43  32 1.43
  47  0.773  0.796  0.500-  46 1.43  45 1.44  42 1.45
  48  0.942  0.899  0.500-  30 1.42  17 1.43  45 1.43
  49  0.285  0.506  0.500-  12 1.38   9 1.39  56 2.39
  50  0.395  0.304  0.500-  25 1.39   8 1.39  55 1.99
  51  0.611  0.300  0.500-  35 1.37  24 1.37  55 2.04
  52  0.387  0.702  0.500-  28 1.37  15 1.37  56 2.10
  53  0.603  0.695  0.500-  26 1.38  42 1.38  56 2.44
  54  0.718  0.497  0.500-  43 1.36  39 1.36
  55  0.503  0.421  0.499-  56 1.69  50 1.99  51 2.04
  56  0.468  0.553  0.500-  55 1.69  52 2.10  49 2.39  53 2.44

  LATTYP: Found a triclinic cell.
 ALAT       =    17.7762245877
 B/A-ratio  =     0.6912660188
 C/A-ratio  =     1.1426667063
 COS(alpha) =     0.0001431170
 COS(beta)  =     0.0002314030
 COS(gamma) =     0.6980919229

  Lattice vectors:

 A1 = (  12.8456405402, -12.2875416461,   0.0000000000)
 A2 = (   0.1171405402, -12.2875416461,   0.0000000000)
 A3 = (   0.0037578750,  -0.0028713426, -20.3122994494)

Analysis of symmetry for initial positions (statically):
 Subroutine PRICEL returns:
 Original cell was already a primitive cell.

 Routine SETGRP: Setting up the symmetry group for a
 triclinic supercell.

 Subroutine GETGRP returns: Found  1 space group operations
 (whereof  1 operations were pure point group operations)
 out of a pool of  2 trial point group operations.

The static configuration has the point symmetry C_1 .

Analysis of symmetry for dynamics (positions and initial velocities):
 Subroutine PRICEL returns:
 Original cell was already a primitive cell.

[...]

The dynamic configuration has the point symmetry C_1 .

Analysis of structural, dynamic, and magnetic symmetry:
 Subroutine PRICEL returns:
 Original cell was already a primitive cell.

 Routine SETGRP: Setting up the symmetry group for a
 triclinic supercell.

 Subroutine GETGRP returns: Found  1 space group operations
 (whereof  1 operations were pure point group operations)
 out of a pool of  2 trial point group operations.

The magnetic configuration has the point symmetry C_1 .

 Subroutine INISYM returns: Found  1 space group operations
 (whereof  1 operations are pure point group operations),
 and found     1 'primitive' translations

 KPOINTS: KPOINTS created by Atomic Simulation Env

Automatic generation of k-mesh.
Space group operators:
 irot       det(A)        alpha          n_x          n_y          n_z        tau_x        tau_y        tau_z
    1     1.000000     0.000000     1.000000     0.000000     0.000000     0.000000     0.000000     0.000000

 Subroutine IBZKPT returns following result:

 Found      2 irreducible k-points:

 Following reciprocal coordinates:
            Coordinates               Weight
  0.250000  0.250000 -0.000000      2.000000
 -0.250000  0.250000  0.000000      2.000000

 Following cartesian coordinates:
            Coordinates               Weight
  0.019641  0.020533  0.000001      2.000000
 -0.019641  0.020159 -0.000006      2.000000

 Subroutine IBZKPT_HF returns following result:

 Found      4 k-points in 1st BZ
 the following      4 k-points will be used (e.g. in the exchange kernel)
 Following reciprocal coordinates:   # in IRBZ
  0.250000  0.250000 -0.000000    0.25000000   1 t-inv F
 -0.250000  0.250000  0.000000    0.25000000   2 t-inv F
 -0.250000 -0.250000  0.000000    0.25000000   1 t-inv T
  0.250000 -0.250000  0.000000    0.25000000   2 t-inv T

 SYSTEM =  unknown system
 POSCAR =   C  N Fe  V

 Startparameter for this run:
   NWRITE =      2    write-flag & timer
   PREC   = accura    normal or accurate (medium, high low for compatibility)
   ISTART =      1    job   : 0-new  1-cont  2-samecut
   ICHARG =      0    charge: 1-file 2-atom 10-const
   ISPIN  =      2    spin polarized calculation?
   LNONCOLLINEAR =      F non collinear calculations
   LSORBIT =      F    spin-orbit coupling
   INIWAV =      1    electr: 0-lowe 1-rand  2-diag
   LASPH  =      T    aspherical Exc in radial PAW
   METAGGA=      F    non-selfconsistent MetaGGA calc.

 Electronic Relaxation 1
   ENCUT  =  500.0 eV  36.75 Ry    6.06 a.u.  23.21 22.40 37.03*2*pi/ulx,y,z
   ENINI  =  500.0     initial cutoff
   ENAUG  =  644.9 eV  augmentation charge cutoff
   NELM   =    250;   NELMIN=  2; NELMDL=  0     # of ELM steps
   EDIFF  = 0.1E-03   stopping-criterion for ELM
   LREAL  =      F    real-space projection
   NLSPLINE    = F    spline interpolate recip. space projectors
   LCOMPAT=      F    compatible to vasp.4.4
   GGA_COMPAT  = T    GGA compatible to vasp.4.4-vasp.4.6
   LMAXPAW     = -100 max onsite density
   LMAXMIX     =    2 max onsite mixed and CHGCAR
   VOSKOWN=      0    Vosko Wilk Nusair interpolation
   ROPT   =    0.00000   0.00000   0.00000   0.00000
 Ionic relaxation
   EDIFFG = -.3E-01   stopping-criterion for IOM
   NSW    =      0    number of steps for IOM
   NBLOCK =      1;   KBLOCK =      1    inner block; outer block
   IBRION =     -1    ionic relax: 0-MD 1-quasi-New 2-CG
   NFREE  =      1    steps in history (QN), initial steepest desc. (CG)
   ISIF   =      2    stress and relaxation
   IWAVPR =     10    prediction:  0-non 1-charg 2-wave 3-comb
   ISYM   =      3    0-nonsym 1-usesym 2-fastsym
   LCORR  =      T    Harris-Foulkes like correction to forces

   POTIM  = 0.5000    time-step for ionic-motion
   TEIN   =    0.0    initial temperature
   TEBEG  =    0.0;   TEEND  =   0.0 temperature during run
   SMASS  =  -3.00    Nose mass-parameter (am)
   estimated Nose-frequenzy (Omega)   =  0.10E-29 period in steps =****** mass=  -0.370E-26a.u.
   SCALEE = 1.0000    scale energy and forces
   NPACO  =    256;   APACO  = 16.0  distance and # of slots for P.C.
   PSTRESS=    0.0 pullay stress

  Mass of Ions in am
   POMASS =  12.01 14.00 55.85 50.94
  Ionic Valenz
   ZVAL   =   4.00  5.00  8.00  5.00
  Atomic Wigner-Seitz radii
  virtual crystal weights
   VCA    =   1.00  1.00  1.00  1.00
   NELECT =     235.0000    total number of electrons
   NUPDOWN=      -1.0000    fix difference up-down

 DOS related values:
   EMIN   =  10.00;   EMAX   =-10.00  energy-range for DOS
   EFERMI =   0.00
   ISMEAR =     0;   SIGMA  =   0.10  broadening in eV -4-tet -1-fermi 0-gaus

 Electronic relaxation 2 (details)
   IALGO  =     53    algorithm
   LDIAG  =      T    sub-space diagonalisation (order eigenvalues)
   LSUBROT=      F    optimize rotation matrix (better conditioning)
   TURBO    =      0    0=normal 1=particle mesh
   IRESTART =      0    0=no restart 2=restart with 2 vectors
   NREBOOT  =      0    no. of reboots
   NMIN     =      0    reboot dimension
   EREF     =   0.00    reference energy to select bands
   IMIX   =      4    mixing-type and parameters
     AMIX     =   0.40;   BMIX     =  1.00
     AMIX_MAG =   1.60;   BMIX_MAG =  1.00
     AMIN     =   0.10
     WC   =   100.;   INIMIX=   1;  MIXPRE=   1;  MAXMIX= -45

 Intra band minimization:
   WEIMIN = 0.0000     energy-eigenvalue tresh-hold
   EBREAK =  0.17E-06  absolut break condition
   DEPER  =   0.30     relativ break condition

   TIME   =   0.20     timestep for ELM

  volume/ion in A,a.u.               =      56.73       382.83
  Fermi-wavevector in a.u.,A,eV,Ry     =   0.687222  1.298661  6.425678  0.472274
[...]
   21        0.868   1.782   0.000   2.650
   22        0.867   1.796   0.000   2.662
   23        0.869   1.786   0.000   2.655
   24        0.861   1.750   0.000   2.611
   25        0.859   1.742   0.000   2.601
   26        0.859   1.734   0.000   2.593
   27        0.868   1.786   0.000   2.654
   28        0.863   1.746   0.000   2.610
   29        0.867   1.777   0.000   2.644
   30        0.868   1.780   0.000   2.648
   31        0.872   1.772   0.000   2.644
   32        0.864   1.788   0.000   2.652
   33        0.867   1.773   0.000   2.639
   34        0.867   1.776   0.000   2.644
   35        0.861   1.741   0.000   2.602
   36        0.866   1.776   0.000   2.642
   37        0.864   1.777   0.000   2.641
   38        0.868   1.777   0.000   2.645
   39        0.858   1.745   0.000   2.603
   40        0.868   1.768   0.000   2.636
   41        0.864   1.766   0.000   2.630
   42        0.851   1.702   0.000   2.554
   43        0.854   1.722   0.000   2.577
   44        0.866   1.778   0.000   2.644
   45        0.864   1.767   0.000   2.631
   46        0.871   1.766   0.000   2.637
   47        0.862   1.757   0.000   2.619
   48        0.867   1.772   0.000   2.638
   49        1.228   2.617   0.000   3.845
   50        1.221   2.661   0.000   3.882
   51        1.231   2.680   0.000   3.911
   52        1.236   2.684   0.000   3.919
   53        1.232   2.613   0.000   3.845
   54        1.246   2.626   0.000   3.872
   55        0.318   0.377   6.640   7.335
   56        0.298   0.409   3.934   4.642
tot         49.499 101.408  10.574 161.481

 magnetization (x)

[...]

  FORCE on cell =-STRESS in cart. coord.  units (eV):
  Direction    XX          YY          ZZ          XY          YZ          ZX
  Alpha Z    93.45915    93.45915    93.45915
  Ewald   45946.93747 46162.62163-54076.05173   -61.77350    -2.23901    -0.40044
  Hartree 45410.81214 45434.10047-44826.06431   -12.68429    -2.09845    -0.02577
  E(xc)    -686.54916  -689.45241  -699.89441     1.01337    -0.04967     0.01186
  Local  -93898.17759-94098.98133 95892.34369    64.75986     4.50672     0.31663
  n-local  -187.27430  -190.70206  -180.85234     0.31260    -0.09826     0.02930
  augment    41.59442    34.99381    39.68535     1.94445     0.00087     0.02085
  Kinetic  3536.16835  3513.94066  4027.46575     5.51255     0.14208     0.03341
  Fock     -299.58758  -300.73099  -270.51505     0.11054    -0.10884     0.00084
  Total     -42.61710   -40.75107    -0.42389    -0.80443     0.05544    -0.01333
  in kB     -21.49281   -20.55173    -0.21378    -0.40569     0.02796    -0.00672

 VOLUME and BASIS-vectors are now :
  energy-cutoff  :      500.00
  volume of cell :     3176.88
      direct lattice vectors                 reciprocal lattice vectors
    12.728500000  0.000000000  0.000000000     0.078563853  0.000748971  0.000014429
    -0.117140540 12.287541646  0.000000000     0.000000000  0.081383244 -0.000011504
    -0.003757875  0.002871343 20.312299449     0.000000000  0.000000000  0.049231255

  length of vectors
    12.728500000 12.288100000 20.312300000     0.078567424  0.081383245  0.049231255

 FORCES acting on ions:
    Electron-Ion                     Ewald-Force                    Non-Local-Force
   0.925E+00 -.896E-01 0.855E-01   -.137E+01 0.241E+00 -.845E-01   0.476E+00 -.669E-01 -.461E-03
   0.342E-01 -.398E+01 -.370E+00   -.455E-03 0.389E+01 0.368E+00   -.157E-01 0.352E-01 0.787E-03
   0.122E+01 0.115E+01 -.147E+00   -.146E+01 -.115E+01 0.148E+00   0.142E+00 0.491E-02 -.141E-02
   0.599E+01 0.124E+01 0.198E+00   -.642E+01 -.151E+01 -.200E+00   0.298E+00 0.186E+00 0.199E-02
   0.579E+01 -.698E+01 -.105E+00   -.623E+01 0.714E+01 0.104E+00   0.455E+00 -.987E-01 -.367E-04
   0.248E+01 -.434E+01 -.351E+00   -.253E+01 0.422E+01 0.349E+00   0.137E+00 0.106E+00 0.143E-02
   -.170E+01 0.417E+00 -.385E+00   0.128E+01 -.293E+00 0.386E+00   0.341E+00 -.726E-01 -.159E-02
   0.214E+02 -.181E+02 -.241E-01   -.252E+02 0.185E+02 0.384E-01   0.338E+01 -.306E+00 -.137E-01
   -.386E+01 0.125E+02 -.510E+00   0.245E+01 -.149E+02 0.513E+00   0.136E+01 0.225E+01 -.566E-02
   0.588E+01 0.296E+01 -.313E+00   -.603E+01 -.307E+01 0.315E+00   0.959E-02 0.739E-01 -.306E-02
   -.708E+01 0.179E+01 -.371E+00   0.702E+01 -.216E+01 0.369E+00   0.927E-01 0.291E+00 0.142E-02
   -.232E+01 -.100E+02 -.640E+00   0.532E+00 0.122E+02 0.638E+00   0.167E+01 -.208E+01 -.183E-02
   0.530E+01 0.441E+01 -.972E-01   -.544E+01 -.422E+01 0.978E-01   0.210E+00 -.116E+00 -.718E-03
   -.259E+01 -.376E+01 -.386E+00   0.241E+01 0.406E+01 0.385E+00   0.344E+00 -.243E+00 0.468E-03
   0.121E+02 0.137E+02 -.359E+00   -.156E+02 -.140E+02 0.360E+00   0.348E+01 0.220E+00 -.256E-02
   0.404E+01 0.437E+01 -.975E-01   -.463E+01 -.429E+01 0.983E-01   0.613E+00 -.381E-01 -.863E-04
   0.196E+01 0.127E+01 -.358E-01   -.199E+01 -.113E+01 0.355E-01   0.508E-01 -.825E-01 0.922E-03
   0.379E+00 0.365E+00 -.326E-01   -.962E+00 -.462E+00 0.320E-01   0.492E+00 0.245E-01 0.122E-02
   0.174E+01 -.157E+01 0.940E-01   -.203E+01 0.189E+01 -.953E-01   0.248E+00 -.361E+00 0.151E-02
   -.624E+01 0.778E+01 -.795E-01   0.582E+01 -.778E+01 0.769E-01   0.291E+00 0.630E-01 0.365E-02
   -.508E+00 0.728E+01 0.261E+00   0.758E+00 -.782E+01 -.262E+00   -.682E-01 0.578E+00 0.754E-03
   0.406E+01 0.208E+01 0.104E+00   -.361E+01 -.201E+01 -.105E+00   -.337E+00 -.325E-01 0.161E-02
   0.115E+01 0.718E+01 -.272E+00   -.140E+01 -.776E+01 0.271E+00   0.153E+00 0.563E+00 -.122E-02
   0.114E+02 0.206E+02 0.618E-01   -.128E+02 -.236E+02 -.504E-01   0.130E+01 0.284E+01 -.127E-01
   -.781E+01 0.168E+02 0.461E+00   0.924E+01 -.199E+02 -.447E+00   -.131E+01 0.284E+01 -.120E-01
   0.110E+02 0.722E+01 -.328E+00   -.118E+02 -.485E+01 0.325E+00   0.104E+01 -.238E+01 0.151E-03
   -.534E+01 0.293E+01 0.506E-01   0.563E+01 -.241E+01 -.501E-01   -.182E+00 -.603E+00 0.387E-03
   -.246E+02 -.116E+01 -.117E+00   0.262E+02 0.408E+01 0.118E+00   -.173E+01 -.285E+01 0.267E-03
   0.405E+01 0.592E+01 -.275E+00   -.425E+01 -.555E+01 0.276E+00   0.185E+00 -.452E+00 -.127E-02
   -.577E+00 0.669E+00 -.350E+00   0.789E+00 -.645E+00 0.350E+00   -.100E+00 -.160E-01 0.308E-03
   -.618E+01 0.429E+01 -.558E+00   0.655E+01 -.466E+01 0.557E+00   -.299E+00 0.245E+00 -.977E-03
   0.319E+00 0.516E+01 -.405E+00   0.522E-01 -.510E+01 0.406E+00   -.435E+00 0.149E-01 -.634E-03
   -.193E+00 -.200E+00 -.555E+00   0.206E+00 0.994E-01 0.556E+00   -.366E-01 0.228E-01 -.242E-02
   0.521E+00 -.657E+00 -.628E+00   -.544E-02 0.839E+00 0.627E+00   -.412E+00 -.835E-01 -.442E-03
   -.247E+02 -.197E+02 -.430E+00   0.284E+02 0.202E+02 0.440E+00   -.345E+01 -.423E+00 -.129E-01
   -.771E+01 -.385E+01 -.728E+00   0.818E+01 0.400E+01 0.727E+00   -.521E+00 -.219E-01 -.314E-02
   -.434E+01 -.344E+01 -.352E+00   0.448E+01 0.328E+01 0.351E+00   -.224E+00 0.772E-01 0.106E-02
   0.489E+01 0.237E+01 -.383E-01   -.489E+01 -.280E+01 0.377E-01   -.811E-01 0.406E+00 0.235E-02
   0.292E+01 0.124E+02 -.688E-01   -.127E+01 -.145E+02 0.751E-01   -.156E+01 0.194E+01 -.581E-02
   -.374E+01 -.439E+01 0.880E-02   0.386E+01 0.441E+01 -.981E-02   0.129E-01 -.454E-01 0.259E-02
   0.116E+02 -.397E+01 0.476E-01   -.117E+02 0.437E+01 -.463E-01   0.262E-02 -.381E+00 -.141E-02
   -.545E+01 0.263E+02 -.831E-01   0.837E+01 -.266E+02 0.812E-01   -.292E+01 0.400E+00 0.149E-02
   0.164E+02 -.276E+02 0.121E+00   -.150E+02 0.298E+02 -.122E+00   -.135E+01 -.216E+01 0.153E-02
   0.140E+01 0.219E+01 0.106E+00   -.136E+01 -.201E+01 -.106E+00   -.977E-01 -.633E-01 0.144E-02
   0.703E+01 0.176E+01 0.104E+00   -.661E+01 -.192E+01 -.105E+00   -.301E+00 0.700E-01 0.202E-02
   -.423E+01 0.431E+01 -.255E+00   0.454E+01 -.409E+01 0.255E+00   -.326E+00 -.210E+00 0.129E-03
   0.421E+00 0.137E+02 -.368E-01   -.862E-01 -.140E+02 0.375E-01   -.395E+00 0.212E+00 -.412E-04
   0.272E+01 0.563E+01 -.640E-01   -.276E+01 -.558E+01 0.650E-01   0.289E-01 0.100E-02 -.641E-04
   -.117E+03 -.969E+00 -.111E+01   0.141E+03 0.150E+01 0.114E+01   -.220E+02 -.576E+00 -.311E-01
   -.802E+01 -.714E+02 0.110E+01   0.172E+02 0.880E+02 -.111E+01   -.858E+01 -.157E+02 0.159E-01
   0.154E+02 -.822E+02 0.240E+00   -.259E+02 0.101E+03 -.260E+00   0.976E+01 -.176E+02 0.199E-01
   -.637E+02 0.101E+03 -.243E+00   0.745E+02 -.120E+03 0.242E+00   -.101E+02 0.180E+02 0.364E-02
   0.576E+02 0.127E+03 -.626E+00   -.701E+02 -.148E+03 0.641E+00   0.118E+02 0.203E+02 -.152E-01
   0.140E+03 -.151E+02 0.246E+00   -.169E+03 0.143E+02 -.255E+00   0.270E+02 0.757E+00 0.669E-02
   -.455E+02 -.981E+02 0.109E+02   0.525E+02 0.624E+02 -.111E+02   -.440E+01 0.278E+02 0.117E+00
   -.178E+02 -.695E+02 -.233E+01   0.106E+02 0.886E+02 0.251E+01   0.432E+01 -.937E+01 -.643E-01
   -.948E+01 -.239E+02 0.185E-01   -.142E-13 0.313E-12 0.222E-14   0.850E+01 0.238E+02 -.424E-02

 POSITION                                       TOTAL-FORCE (eV/Angst)
      2.82876      0.03184     10.15499         0.059074      0.080460      0.000531
      0.70600      1.25867     10.15702         0.016566     -0.058607     -0.000474
      1.40270      0.02177     10.15612        -0.090168      0.001775     -0.000961
      3.53350      1.26930     10.15408        -0.107873     -0.069460      0.000566
      2.85269      2.52302     10.15493         0.043869      0.048664     -0.001796
      0.70645      3.72587     10.15694         0.101698     -0.016041     -0.000225
      1.41867      2.50148     10.15667        -0.060934      0.055106     -0.000661
      3.60035      3.75671     10.15364        -0.170449      0.071445     -0.000086
      2.88192      5.01130     10.15637         0.022462     -0.097688     -0.002598
      0.66074      6.16064     10.15674        -0.134890     -0.027371     -0.000999
      1.42848      4.95660     10.15683         0.023372     -0.059887     -0.000657
      2.79867      7.37174     10.15749        -0.026248      0.012613     -0.004265
      0.61221      8.60353     10.15612         0.088146      0.080017     -0.000065
      1.36264      7.38975     10.15700         0.169854      0.039878     -0.001239
      3.47328      8.63171     10.15664         0.131036     -0.070162     -0.001886
      2.72695      9.84514     10.15593         0.063449      0.042155      0.000726
      0.58367     11.06965     10.15600         0.014446      0.051553      0.000751
      1.30040      9.83947     10.15593        -0.066887     -0.075176      0.000771
      3.41817     11.08380     10.15510        -0.030450     -0.066101      0.000306
      6.94464     12.27885     10.15525        -0.131322      0.070097      0.001249
      4.95514      1.26225     10.15321         0.171899      0.072039     -0.000538
      5.65491      0.01539     10.15440         0.114793      0.028746      0.000462
      7.75905      1.23214     10.15533        -0.079876      0.016984     -0.002608
      7.07704      2.48252     10.15284        -0.042177      0.035611     -0.001904
      5.63838      2.50741     10.15144         0.056811     -0.100882      0.001413
      6.96137      9.77111     10.15633         0.241831     -0.153452     -0.002422
      4.83958     11.06566     10.15501         0.090715     -0.115270      0.000985
      5.52174      9.81223     10.15576        -0.252118     -0.092483      0.000954
      7.64216     11.03000     10.15624        -0.002964     -0.109814     -0.001089
     11.30537      0.00320     10.15718         0.104589      0.004102      0.000224
      9.17775      1.22734     10.15699         0.041299     -0.107106     -0.002060
      9.76448     12.27878     10.15712        -0.082901      0.077304      0.000079
     12.00644      1.24542     10.15776        -0.025081     -0.075334     -0.001512
     11.29308      2.47928     10.15778         0.085713      0.096556     -0.001014
      9.10762      3.69136     10.15503         0.005521     -0.013918     -0.003651
      9.86261      2.47619     10.15729        -0.084901      0.117472     -0.004283
     11.99429      3.71199     10.15696        -0.102768     -0.082628     -0.000117
     11.24798      4.92324     10.15564        -0.084790      0.012168      0.001929
      9.80712      4.95676     10.15468        -0.005613     -0.001234      0.000167
     11.95233      6.15150     10.15564         0.121375     -0.032827      0.001761
     11.19172      7.35977     10.15518        -0.131999     -0.007630     -0.000173
      8.97953      8.54713     10.15554        -0.164523      0.127575     -0.000344
      9.74050      7.29599     10.15451         0.036124     -0.183049      0.000819
     11.90265      8.58875     10.15540        -0.070343      0.120869      0.002310
     11.17639      9.80717     10.15553         0.113036     -0.090592      0.001544
      9.06058     11.03503     10.15650        -0.036350     -0.008783      0.000022
      9.73868      9.78107     10.15579        -0.083455     -0.049692      0.000750
     11.88463     11.05311     10.15620        -0.006827      0.061987      0.000951
      3.56793      6.22227     10.15741        -0.356169     -0.092870     -0.005939
      4.98958      3.73308     10.14952        -0.148360     -0.328406      0.003897
      7.74187      3.68433     10.15172         0.101473     -0.362207      0.001074
      4.84563      8.62349     10.15600        -0.143364      0.393714      0.002245
      7.59459      8.54195     10.15645         0.285507      0.619412     -0.001768
      9.08225      6.10785     10.15362         0.505956      0.054469     -0.001251
      6.35490      5.17787     10.13591         0.763536     -2.568254     -0.002554
      5.88809      6.79756     10.15588        -0.850351      2.724149      0.022651
    total drift:                                0.001705     -0.009191     -0.001374

  FREE ENERGIE OF THE ION-ELECTRON SYSTEM (eV)
  free  energy   TOTEN  =      -588.01974776 eV

  energy  without entropy=     -588.01919211  energy(sigma->0) =     -588.01946994

 stress matrix after NEB project (eV)
    -42.61710     -0.80462     -0.01333
     -0.80443    -40.75107      0.05545
     -0.01331      0.05544     -0.42389
  FORCES: max atom, RMS     2.853874    0.557473
  FORCE total and by dimension    4.171748    2.724149
  Stress total and by dimension   58.977524   42.617104
 writing wavefunctions

 total charge

[...]

 magnetization (x)

# of ion       s       p       d       tot
    1        0.000   0.003   0.000   0.003
    2       -0.000  -0.004   0.000  -0.004
    3       -0.000  -0.005   0.000  -0.005
    4       -0.000  -0.003   0.000  -0.004
    5        0.000   0.000   0.000   0.001
    6       -0.000  -0.002   0.000  -0.002
    7       -0.000  -0.005   0.000  -0.005
    8       -0.001  -0.024   0.000  -0.026
    9        0.000  -0.015   0.000  -0.015
   10       -0.002  -0.040   0.000  -0.043
   11        0.001   0.003   0.000   0.003
   12        0.000  -0.015   0.000  -0.015
   13       -0.000  -0.001   0.000  -0.001
   14        0.000  -0.001   0.000  -0.000
   15       -0.001  -0.020   0.000  -0.021
   16        0.001   0.003   0.000   0.003
   17       -0.000  -0.005   0.000  -0.005
   18       -0.000  -0.008   0.000  -0.008
   19       -0.000  -0.002   0.000  -0.002
   20       -0.000  -0.004   0.000  -0.005
   21       -0.000  -0.004   0.000  -0.004
   22       -0.000  -0.002   0.000  -0.002
   23        0.000   0.001   0.000   0.001
   24       -0.000  -0.007   0.000  -0.008
   25        0.000  -0.006   0.000  -0.006
   26        0.000   0.002   0.000   0.002
   27       -0.000  -0.008   0.000  -0.008
   28        0.001   0.004   0.000   0.004
   29       -0.000  -0.003   0.000  -0.003
   30       -0.001  -0.012   0.000  -0.013
   31       -0.000  -0.003   0.000  -0.003
   32        0.000   0.003   0.000   0.004
   33        0.001   0.004   0.000   0.005
   34       -0.001  -0.015   0.000  -0.016
   35       -0.001  -0.022   0.000  -0.023
   36        0.000   0.003   0.000   0.004
   37        0.001   0.007   0.000   0.007
   38       -0.001  -0.012   0.000  -0.013
   39        0.001   0.007   0.000   0.009
   40        0.000  -0.004   0.000  -0.004
   41       -0.001  -0.018   0.000  -0.019
   42       -0.001  -0.017   0.000  -0.018
   43        0.001   0.008   0.000   0.010
   44        0.001   0.009   0.000   0.009
   45       -0.001  -0.017   0.000  -0.018
   46       -0.000  -0.001   0.000  -0.001
   47        0.000   0.004   0.000   0.005
   48        0.001   0.004   0.000   0.004
   49       -0.009  -0.137   0.000  -0.146
   50       -0.003  -0.041   0.000  -0.044
   51       -0.001  -0.019   0.000  -0.020
   52       -0.002  -0.037   0.000  -0.039
   53       -0.003  -0.025   0.000  -0.028
   54       -0.005  -0.093   0.000  -0.098
   55        0.005   0.015  -2.309  -2.288
   56        0.065   0.016   2.261   2.341
tot          0.042  -0.563  -0.048  -0.570