 vasp.5.4.4.18Apr17-6-g9f103f2a35 (build Feb 25 2019 10:51:38) complex

 executed on             LinuxIFC date 2021.06.19  03:24:24

 INCAR:
 POTCAR:    PAW_PBE C 08Apr2002
 POTCAR:    PAW_PBE N 08Apr2002
 POTCAR:    PAW_PBE Fe 06Sep2000
 POTCAR:    PAW_PBE Sc_sv 07Sep2000

 POTCAR:    PAW_PBE C 08Apr2002
   VRHFIN =C: s2p2

   TITEL  = PAW_PBE C 08Apr2002
   POMASS =   12.011; ZVAL   =    4.000    mass and valenz
   ENMAX  =  400.000; ENMIN  =  300.000 eV

 POTCAR:    PAW_PBE N 08Apr2002
   VRHFIN =N: s2p3

   TITEL  = PAW_PBE N 08Apr2002
   POMASS =   14.001; ZVAL   =    5.000    mass and valenz
   ENMAX  =  400.000; ENMIN  =  300.000 eV

 POTCAR:    PAW_PBE Fe 06Sep2000
   VRHFIN =Fe:  d7 s1

   TITEL  = PAW_PBE Fe 06Sep2000
   POMASS =   55.847; ZVAL   =    8.000    mass and valenz
   ENMAX  =  267.882; ENMIN  =  200.911 eV

 POTCAR:    PAW_PBE Sc_sv 07Sep2000
   VRHFIN =Sc: 3p4s3d

   TITEL  = PAW_PBE Sc_sv 07Sep2000
   POMASS =   44.956; ZVAL   =   11.000    mass and valenz
   ENMAX  =  222.660; ENMIN  =  166.995 eV

  PAW_PBE C 08Apr2002                   :
  PAW_PBE N 08Apr2002                   :
  PAW_PBE Fe 06Sep2000                  :
  PAW_PBE Sc_sv 07Sep2000               :

 POSCAR:  C  N Fe Sc
  positions in cartesian coordinates
 exchange correlation table for  LEXCH =        8
   RHO(1)=    0.500       N(1)  =     2000
   RHO(2)=  100.500       N(2)  =     4000

 VTST: version 3.2, (02/03/18)

 CHAIN: initializing optimizer

 OPT: Using VASP Conjugate-Gradient optimizer
 CHAIN: Read ICHAIN            0

 POSCAR:  C  N Fe Sc
  positions in cartesian coordinates

 ion  position               nearest neighbor table
   1  0.221  1.000  0.505-   3 1.42   4 1.43  20 1.43
   2  0.055  0.101  0.506-  34 1.42   3 1.44   7 1.44
   3  0.109  1.000  0.505-   1 1.42  18 1.43   2 1.44
   4  0.277  0.099  0.506-  22 1.42   5 1.43   1 1.43
   5  0.224  0.200  0.506-   4 1.43   7 1.43   8 1.44
   6  0.056  0.301  0.504-   7 1.43  38 1.44  11 1.44
   7  0.111  0.201  0.505-   5 1.43   6 1.43   2 1.44
   8  0.284  0.298  0.504-  51 1.39   5 1.44   9 1.45
   9  0.227  0.399  0.501-  11 1.44   8 1.45  12 1.45
  10  0.056  0.500  0.501-  11 1.45  15 1.45  42 1.45
  11  0.114  0.400  0.502-   6 1.44   9 1.44  10 1.45
  12  0.285  0.499  0.493-  53 1.34   9 1.45  13 1.47
  13  0.227  0.600  0.495-  15 1.44  16 1.45  12 1.47
  14  0.056  0.699  0.501-  19 1.43  46 1.44  15 1.44
  15  0.114  0.600  0.499-  14 1.44  13 1.44  10 1.45
  16  0.282  0.702  0.494-  55 1.38  17 1.44  13 1.45
  17  0.223  0.800  0.500-  19 1.43  20 1.43  16 1.44
  18  0.055  0.899  0.504-  50 1.42   3 1.43  19 1.44
  19  0.111  0.799  0.502-  17 1.43  14 1.43  18 1.44
  20  0.276  0.901  0.502-  28 1.42   1 1.43  17 1.43
  21  0.555  1.000  0.505-  23 1.41  30 1.42  24 1.42
  22  0.388  0.098  0.507-  26 1.41   4 1.42  23 1.42
  23  0.444  1.000  0.505-  21 1.41  28 1.42  22 1.42
  24  0.610  0.098  0.507-  25 1.41  32 1.42  21 1.42
  25  0.555  0.196  0.507-  52 1.38  24 1.41  26 1.43
  26  0.443  0.196  0.507-  51 1.38  22 1.41  25 1.43
  27  0.556  0.804  0.495-  56 1.37  30 1.41  29 1.45
  28  0.388  0.902  0.501-  29 1.41  23 1.42  20 1.42
  29  0.442  0.804  0.495-  55 1.37  28 1.41  27 1.45
  30  0.610  0.902  0.501-  27 1.41  21 1.42  48 1.42
  31  0.889  1.000  0.505-  33 1.42  50 1.43  34 1.44
  32  0.722  0.099  0.506-  24 1.42  37 1.43  33 1.43
  33  0.777  1.000  0.505-  31 1.42  32 1.43  48 1.43
  34  0.943  0.101  0.506-   2 1.42  31 1.44  35 1.44
  35  0.887  0.201  0.505-  37 1.43  38 1.43  34 1.44
  36  0.715  0.298  0.504-  52 1.39  37 1.44  41 1.45
  37  0.775  0.200  0.506-  32 1.43  35 1.43  36 1.44
  38  0.943  0.301  0.505-  35 1.43   6 1.44  39 1.44
  39  0.885  0.400  0.502-  38 1.44  41 1.44  42 1.45
  40  0.714  0.499  0.493-  54 1.34  41 1.45  45 1.47
  41  0.771  0.399  0.501-  39 1.44  36 1.45  40 1.45
  42  0.942  0.500  0.501-  39 1.45  43 1.45  10 1.45
  43  0.885  0.600  0.499-  46 1.44  45 1.44  42 1.45
  44  0.716  0.702  0.494-  56 1.38  49 1.44  45 1.45
  45  0.771  0.600  0.495-  43 1.44  44 1.45  40 1.47
  46  0.943  0.699  0.501-  47 1.43  14 1.44  43 1.44
  47  0.888  0.799  0.502-  49 1.43  46 1.43  50 1.44
  48  0.722  0.901  0.502-  30 1.42  33 1.43  49 1.43
  49  0.776  0.800  0.500-  47 1.43  48 1.43  44 1.44
  50  0.943  0.899  0.504-  18 1.42  31 1.43  47 1.44
  51  0.393  0.294  0.505-  26 1.38   8 1.39  57 1.93
  52  0.606  0.294  0.505-  25 1.38  36 1.39  57 1.93
  53  0.389  0.499  0.483-  12 1.34  57 1.86  58 2.00
  54  0.609  0.499  0.483-  40 1.34  57 1.86  58 2.00
  55  0.390  0.708  0.488-  29 1.37  16 1.38  58 2.17
  56  0.608  0.708  0.488-  27 1.37  44 1.38  58 2.17
  57  0.499  0.403  0.496-  54 1.86  53 1.86  52 1.93  51 1.93  58 2.61
  58  0.499  0.595  0.444-  53 2.00  54 2.00  55 2.17  56 2.17  57 2.61

  LATTYP: Found a triclinic cell.
 ALAT       =    12.4915000000
 B/A-ratio  =     1.4265666552
 C/A-ratio  =     1.6020894208
 COS(alpha) =     0.0000421339
 COS(beta)  =     0.0002199115
 COS(gamma) =     0.7010173256

  Lattice vectors:

 A1 = (  -0.0005886481, -12.4914999861,   0.0000000000)
 A2 = ( -12.7087886481, -12.4914999861,   0.0000000000)
 A3 = (   0.0031435561,  -0.0044011267, -20.0124992692)

Analysis of symmetry for initial positions (statically):
 Subroutine PRICEL returns:
 Original cell was already a primitive cell.

 Routine SETGRP: Setting up the symmetry group for a
 triclinic supercell.

 Subroutine GETGRP returns: Found  1 space group operations
 (whereof  1 operations were pure point group operations)
 out of a pool of  2 trial point group operations.

The static configuration has the point symmetry C_1 .

Analysis of symmetry for dynamics (positions and initial velocities):
 Subroutine PRICEL returns:
 Original cell was already a primitive cell.

[...]

The dynamic configuration has the point symmetry C_1 .

Analysis of structural, dynamic, and magnetic symmetry:
 Subroutine PRICEL returns:
 Original cell was already a primitive cell.

 Routine SETGRP: Setting up the symmetry group for a
 triclinic supercell.

 Subroutine GETGRP returns: Found  1 space group operations
 (whereof  1 operations were pure point group operations)
 out of a pool of  2 trial point group operations.

The magnetic configuration has the point symmetry C_1 .

 Subroutine INISYM returns: Found  1 space group operations
 (whereof  1 operations are pure point group operations),
 and found     1 'primitive' translations

 KPOINTS: KPOINTS created by Atomic Simulation Env

Automatic generation of k-mesh.
Space group operators:
 irot       det(A)        alpha          n_x          n_y          n_z        tau_x        tau_y        tau_z
    1     1.000000     0.000000     1.000000     0.000000     0.000000     0.000000     0.000000     0.000000

 Subroutine IBZKPT returns following result:

 Found      2 irreducible k-points:

 Following reciprocal coordinates:
            Coordinates               Weight
  0.250000  0.250000  0.000000      2.000000
 -0.250000  0.250000  0.000000      2.000000

 Following cartesian coordinates:
            Coordinates               Weight
  0.019672  0.020013 -0.000001      2.000000
 -0.019672  0.020015 -0.000007      2.000000

 Subroutine IBZKPT_HF returns following result:

 Found      4 k-points in 1st BZ
 the following      4 k-points will be used (e.g. in the exchange kernel)
 Following reciprocal coordinates:   # in IRBZ
  0.250000  0.250000  0.000000    0.25000000   1 t-inv F
 -0.250000  0.250000  0.000000    0.25000000   2 t-inv F
 -0.250000 -0.250000 -0.000000    0.25000000   1 t-inv T
  0.250000 -0.250000 -0.000000    0.25000000   2 t-inv T

 SYSTEM =  unknown system
 POSCAR =   C  N Fe Sc

 Startparameter for this run:
   NWRITE =      2    write-flag & timer
   PREC   = accura    normal or accurate (medium, high low for compatibility)
   ISTART =      1    job   : 0-new  1-cont  2-samecut
   ICHARG =      0    charge: 1-file 2-atom 10-const
   ISPIN  =      2    spin polarized calculation?
   LNONCOLLINEAR =      F non collinear calculations
   LSORBIT =      F    spin-orbit coupling
   INIWAV =      1    electr: 0-lowe 1-rand  2-diag
   LASPH  =      T    aspherical Exc in radial PAW
   METAGGA=      F    non-selfconsistent MetaGGA calc.

 Electronic Relaxation 1
   ENCUT  =  500.0 eV  36.75 Ry    6.06 a.u.  23.17 22.77 36.49*2*pi/ulx,y,z
   ENINI  =  500.0     initial cutoff
   ENAUG  =  644.9 eV  augmentation charge cutoff
   NELM   =    250;   NELMIN=  2; NELMDL=  0     # of ELM steps
   EDIFF  = 0.1E-03   stopping-criterion for ELM
   LREAL  =      F    real-space projection
   NLSPLINE    = F    spline interpolate recip. space projectors
   LCOMPAT=      F    compatible to vasp.4.4
   GGA_COMPAT  = T    GGA compatible to vasp.4.4-vasp.4.6
   LMAXPAW     = -100 max onsite density
   LMAXMIX     =    2 max onsite mixed and CHGCAR
   VOSKOWN=      0    Vosko Wilk Nusair interpolation
   ROPT   =    0.00000   0.00000   0.00000   0.00000
 Ionic relaxation
   EDIFFG = -.3E-01   stopping-criterion for IOM
   NSW    =      0    number of steps for IOM
   NBLOCK =      1;   KBLOCK =      1    inner block; outer block
   IBRION =     -1    ionic relax: 0-MD 1-quasi-New 2-CG
   NFREE  =      1    steps in history (QN), initial steepest desc. (CG)
   ISIF   =      2    stress and relaxation
   IWAVPR =     10    prediction:  0-non 1-charg 2-wave 3-comb
   ISYM   =      3    0-nonsym 1-usesym 2-fastsym
   LCORR  =      T    Harris-Foulkes like correction to forces

   POTIM  = 0.5000    time-step for ionic-motion
   TEIN   =    0.0    initial temperature
   TEBEG  =    0.0;   TEEND  =   0.0 temperature during run
   SMASS  =  -3.00    Nose mass-parameter (am)
   estimated Nose-frequenzy (Omega)   =  0.10E-29 period in steps =****** mass=  -0.369E-26a.u.
   SCALEE = 1.0000    scale energy and forces
   NPACO  =    256;   APACO  = 16.0  distance and # of slots for P.C.
   PSTRESS=    0.0 pullay stress

  Mass of Ions in am
   POMASS =  12.01 14.00 55.85 44.96
  Ionic Valenz
   ZVAL   =   4.00  5.00  8.00 11.00
  Atomic Wigner-Seitz radii
  virtual crystal weights
   VCA    =   1.00  1.00  1.00  1.00
   NELECT =     249.0000    total number of electrons
   NUPDOWN=      -1.0000    fix difference up-down

 DOS related values:
   EMIN   =  10.00;   EMAX   =-10.00  energy-range for DOS
   EFERMI =   0.00
   ISMEAR =     0;   SIGMA  =   0.10  broadening in eV -4-tet -1-fermi 0-gaus

 Electronic relaxation 2 (details)
   IALGO  =     53    algorithm
   LDIAG  =      T    sub-space diagonalisation (order eigenvalues)
   LSUBROT=      F    optimize rotation matrix (better conditioning)
   TURBO    =      0    0=normal 1=particle mesh
   IRESTART =      0    0=no restart 2=restart with 2 vectors
   NREBOOT  =      0    no. of reboots
   NMIN     =      0    reboot dimension
   EREF     =   0.00    reference energy to select bands
   IMIX   =      4    mixing-type and parameters
     AMIX     =   0.40;   BMIX     =  1.00
     AMIX_MAG =   1.60;   BMIX_MAG =  1.00
     AMIN     =   0.10
     WC   =   100.;   INIMIX=   1;  MIXPRE=   1;  MAXMIX= -45

 Intra band minimization:
   WEIMIN = 0.0000     energy-eigenvalue tresh-hold
[...]
   33        0.866   1.785   0.000   2.652
   34        0.864   1.761   0.000   2.624
   35        0.863   1.753   0.000   2.616
   36        0.853   1.704   0.000   2.557
   37        0.864   1.764   0.000   2.628
   38        0.861   1.754   0.000   2.615
   39        0.859   1.734   0.000   2.593
   40        0.860   1.699   0.000   2.559
   41        0.855   1.751   0.000   2.606
   42        0.855   1.737   0.000   2.591
   43        0.858   1.732   0.000   2.591
   44        0.855   1.706   0.000   2.561
   45        0.852   1.741   0.000   2.593
   46        0.861   1.753   0.000   2.614
   47        0.864   1.757   0.000   2.621
   48        0.869   1.769   0.000   2.638
   49        0.865   1.769   0.000   2.634
   50        0.864   1.764   0.000   2.628
   51        1.233   2.662   0.000   3.894
   52        1.233   2.662   0.000   3.894
   53        1.249   2.623   0.000   3.872
   54        1.249   2.623   0.000   3.872
   55        1.238   2.678   0.000   3.916
   56        1.238   2.678   0.000   3.916
   57        0.490   0.670   6.320   7.480
   58        2.216   6.219   1.266   9.701
tot         53.285 110.605   7.586 171.476

 magnetization (x)

[...]

  FORCE on cell =-STRESS in cart. coord.  units (eV):
  Direction    XX          YY          ZZ          XY          YZ          ZX
  Alpha Z   107.97792   107.97792   107.97792
  Ewald   49293.32174 48991.12100-57804.35612    -0.08357   -69.19969    -0.15858
  Hartree 48843.50586 48794.75455-47966.16124    -0.07372   -62.10483    -0.08111
  E(xc)    -731.13162  -731.81269  -746.02484     0.00012     0.05850    -0.00022
  Local  ************************102632.03126     0.16280   133.11439     0.24395
  n-local  -188.76921  -194.82583  -186.05051     0.00818     1.19629    -0.00382
  augment    44.66620    44.81446    48.74421    -0.00028     0.74036    -0.00060
  Kinetic  3715.92341  3777.63339  4238.71096    -0.06465    -3.18820    -0.00763
  Fock     -349.71844  -348.54369  -326.10696    -0.00168    -0.96952     0.00064
  Total     -46.43428   -41.70717    -1.23532    -0.05282    -0.35269    -0.00735
  in kB     -23.41798   -21.03397    -0.62300    -0.02664    -0.17787    -0.00371

 VOLUME and BASIS-vectors are now :
  energy-cutoff  :      500.00
  volume of cell :     3176.87
      direct lattice vectors                 reciprocal lattice vectors
    12.708200000  0.000000000  0.000000000     0.078689350 -0.000003708  0.000012361
     0.000588648 12.491499986  0.000000000     0.000000000  0.080054437 -0.000017605
    -0.003143556  0.004401127 20.012499269     0.000000000  0.000000000  0.049968771

  length of vectors
    12.708200000 12.491500000 20.012500000     0.078689351  0.080054439  0.049968771

 FORCES acting on ions:
    Electron-Ion                     Ewald-Force                    Non-Local-Force
   0.940E+01 -.835E+00 -.174E+02   -.975E+01 0.821E+00 0.175E+02   0.285E+00 -.255E-01 -.440E-01
   -.297E-01 -.198E+01 -.155E+02   -.320E-01 0.211E+01 0.156E+02   0.138E-01 -.115E+00 -.226E-01
   0.120E+02 -.704E+00 -.152E+02   -.121E+02 0.723E+00 0.152E+02   0.170E+00 -.123E-01 0.190E-03
   0.193E+02 0.609E+01 -.226E+02   -.197E+02 -.613E+01 0.225E+02   0.355E+00 0.130E+00 -.216E-02
   0.205E+02 0.536E+00 -.218E+02   -.208E+02 -.441E+00 0.219E+02   0.315E+00 -.189E+00 -.332E-01
   0.506E+01 -.231E+01 -.163E+02   -.518E+01 0.269E+01 0.163E+02   0.868E-01 -.374E+00 -.299E-01
   0.106E+02 0.425E+00 -.164E+02   -.110E+02 -.864E-01 0.164E+02   0.327E+00 -.335E+00 0.321E-01
   0.512E+02 -.204E+01 -.248E+02   -.546E+02 0.289E+01 0.246E+02   0.364E+01 -.833E+00 0.216E+00
   0.272E+02 0.153E+01 -.196E+02   -.271E+02 -.599E+00 0.199E+02   -.197E+00 -.881E+00 -.204E+00
   0.671E+01 0.494E+00 -.720E+01   -.692E+01 -.489E+00 0.717E+01   0.144E+00 -.280E-02 0.291E-01
   0.105E+02 -.162E+01 -.143E+02   -.103E+02 0.185E+01 0.143E+02   -.126E+00 -.237E+00 -.537E-01
   0.739E+02 0.118E+01 -.197E+01   -.755E+02 -.134E+01 0.273E+01   0.211E+01 0.879E-01 -.851E+00
   0.278E+02 0.893E+00 0.501E+01   -.277E+02 -.176E+01 -.517E+01   -.204E+00 0.907E+00 0.167E+00
   0.478E+01 0.308E+01 -.101E+02   -.489E+01 -.350E+01 0.101E+02   0.884E-01 0.395E+00 -.203E-01
   0.111E+02 0.227E+01 -.495E+01   -.109E+02 -.252E+01 0.501E+01   -.153E+00 0.246E+00 -.697E-01
   0.567E+02 0.355E+01 -.248E+01   -.602E+02 -.446E+01 0.292E+01   0.357E+01 0.806E+00 -.454E+00
   0.212E+02 -.254E+01 -.139E+02   -.216E+02 0.239E+01 0.140E+02   0.387E+00 0.214E+00 -.105E+00
   -.407E+00 0.753E+00 -.150E+02   0.346E+00 -.843E+00 0.151E+02   0.205E-01 0.908E-01 -.335E-01
   0.123E+02 -.399E+00 -.145E+02   -.127E+02 0.605E-01 0.145E+02   0.370E+00 0.331E+00 -.657E-01
   0.193E+02 -.758E+01 -.139E+02   -.197E+02 0.768E+01 0.138E+02   0.328E+00 -.118E+00 0.578E-01
   -.662E+01 -.707E+00 -.259E+02   0.626E+01 0.740E+00 0.260E+02   0.275E+00 -.297E-01 -.465E-01
   0.107E+02 0.145E+02 -.304E+02   -.107E+02 -.150E+02 0.304E+02   0.218E-01 0.464E+00 -.741E-01
   0.660E+01 -.662E+00 -.260E+02   -.624E+01 0.695E+00 0.260E+02   -.275E+00 -.260E-01 -.471E-01
   -.108E+02 0.146E+02 -.303E+02   0.107E+02 -.150E+02 0.304E+02   -.267E-01 0.464E+00 -.799E-01
   0.153E+01 0.417E+02 -.383E+02   -.259E+01 -.442E+02 0.384E+02   0.137E+01 0.273E+01 -.215E+00
   -.154E+01 0.416E+02 -.385E+02   0.260E+01 -.442E+02 0.387E+02   -.137E+01 0.273E+01 -.225E+00
   0.619E+01 -.446E+02 -.990E+01   -.723E+01 0.474E+02 0.108E+02   0.116E+01 -.264E+01 -.871E+00
   0.104E+02 -.161E+02 -.174E+02   -.102E+02 0.165E+02 0.176E+02   -.590E-01 -.488E+00 -.135E+00
   -.616E+01 -.447E+02 -.978E+01   0.720E+01 0.474E+02 0.107E+02   -.115E+01 -.264E+01 -.861E+00
   -.104E+02 -.161E+02 -.172E+02   0.103E+02 0.165E+02 0.174E+02   0.663E-01 -.488E+00 -.126E+00
   -.119E+02 -.769E+00 -.152E+02   0.121E+02 0.789E+00 0.152E+02   -.170E+00 -.210E-01 0.409E-02
   -.193E+02 0.606E+01 -.224E+02   0.197E+02 -.609E+01 0.223E+02   -.360E+00 0.133E+00 0.377E-02
   -.940E+01 -.781E+00 -.174E+02   0.975E+01 0.764E+00 0.175E+02   -.284E+00 -.185E-01 -.465E-01
   0.623E-01 -.196E+01 -.156E+02   -.166E-02 0.209E+01 0.156E+02   -.234E-01 -.120E+00 -.273E-01
   -.106E+02 0.464E+00 -.163E+02   0.109E+02 -.127E+00 0.163E+02   -.328E+00 -.335E+00 0.359E-01
   -.512E+02 -.199E+01 -.248E+02   0.546E+02 0.284E+01 0.246E+02   -.364E+01 -.838E+00 0.220E+00
   -.205E+02 0.582E+00 -.219E+02   0.208E+02 -.487E+00 0.219E+02   -.315E+00 -.191E+00 -.384E-01
   -.508E+01 -.230E+01 -.163E+02   0.520E+01 0.268E+01 0.163E+02   -.837E-01 -.375E+00 -.305E-01
   -.105E+02 -.161E+01 -.144E+02   0.103E+02 0.184E+01 0.144E+02   0.128E+00 -.237E+00 -.550E-01
   -.739E+02 0.106E+01 -.203E+01   0.755E+02 -.123E+01 0.279E+01   -.211E+01 0.804E-01 -.855E+00
   -.272E+02 0.159E+01 -.197E+02   0.271E+02 -.662E+00 0.200E+02   0.198E+00 -.886E+00 -.204E+00
   -.675E+01 0.505E+00 -.727E+01   0.696E+01 -.500E+00 0.724E+01   -.147E+00 -.834E-03 0.307E-01
   -.111E+02 0.224E+01 -.516E+01   0.109E+02 -.249E+01 0.522E+01   0.157E+00 0.251E+00 -.755E-01
   -.566E+02 0.360E+01 -.263E+01   0.602E+02 -.452E+01 0.307E+01   -.357E+01 0.806E+00 -.462E+00
   -.278E+02 0.864E+00 0.500E+01   0.277E+02 -.173E+01 -.517E+01   0.207E+00 0.907E+00 0.174E+00
   -.478E+01 0.311E+01 -.102E+02   0.490E+01 -.353E+01 0.102E+02   -.859E-01 0.398E+00 -.163E-01
   -.124E+02 -.439E+00 -.146E+02   0.128E+02 0.101E+00 0.147E+02   -.372E+00 0.332E+00 -.688E-01
   -.193E+02 -.764E+01 -.139E+02   0.197E+02 0.774E+01 0.138E+02   -.322E+00 -.110E+00 0.539E-01
   -.212E+02 -.259E+01 -.138E+02   0.216E+02 0.244E+01 0.139E+02   -.390E+00 0.216E+00 -.978E-01
   0.436E+00 0.761E+00 -.151E+02   -.377E+00 -.849E+00 0.152E+02   -.144E-01 0.879E-01 -.369E-01
   0.264E+02 -.183E+02 -.486E+02   -.163E+02 0.363E+02 0.486E+02   -.983E+01 -.173E+02 0.149E+00
   -.264E+02 -.181E+02 -.488E+02   0.164E+02 0.361E+02 0.487E+02   0.982E+01 -.173E+02 0.130E+00
   0.587E+02 0.155E+02 0.520E+02   -.432E+02 -.116E+02 -.551E+02   -.151E+02 -.300E+01 0.266E+01
   -.587E+02 0.153E+02 0.526E+02   0.432E+02 -.114E+02 -.557E+02   0.151E+02 -.298E+01 0.268E+01
   0.232E+02 0.171E+02 0.951E+01   -.115E+02 -.378E+02 -.116E+02   -.109E+02 0.196E+02 0.192E+01
   -.232E+02 0.172E+02 0.967E+01   0.115E+02 -.380E+02 -.118E+02   0.109E+02 0.196E+02 0.194E+01
   0.213E+00 0.565E+02 -.672E+02   -.216E+00 -.568E+02 0.665E+02   -.127E-01 -.104E+01 0.106E+01
   -.194E+00 -.761E+02 0.818E+03   0.206E+00 0.742E+02 -.805E+03   -.931E-03 0.136E+01 -.111E+02
   0.206E-01 0.615E+00 0.693E+01   0.112E-12 -.568E-13 0.000E+00   -.189E-01 -.776E+00 -.626E+01

 POSITION                                       TOTAL-FORCE (eV/Angst)
      2.80763     12.49314     10.10304        -0.060349     -0.041378      0.001613
      0.70022      1.26060     10.11862        -0.055534      0.002090     -0.000411
      1.39008     12.49340     10.10645         0.061078      0.005364     -0.003559
      3.51288      1.24157     10.13167         0.023372      0.102664     -0.023385
      2.84158      2.50052     10.12392        -0.050117     -0.108433     -0.003762
      0.70709      3.76195     10.09628        -0.027199     -0.010260     -0.007873
      1.41126      2.51333     10.11574         0.017597     -0.012527     -0.002756
      3.60142      3.72767     10.09353         0.454659     -0.033922     -0.033486
      2.88752      4.98451     10.02794        -0.125104      0.010844      0.013685
      0.71331      6.24469     10.01987        -0.051613      0.001990     -0.000919
      1.44348      4.99776     10.05464         0.057605     -0.020497     -0.007457
      3.61900      6.23191      9.86833         0.652532     -0.074670     -0.144821
      2.88670      7.50083      9.90052        -0.123886      0.079820      0.015993
      0.70670      8.72908     10.02450        -0.019404     -0.001855     -0.012310
      1.44432      7.49157      9.98588         0.053831      0.011506     -0.015570
      3.58439      8.77447      9.89231         0.254019     -0.057401     -0.039948
      2.82983      9.99718     10.01003        -0.011671      0.074370     -0.014593
      0.69893     11.23603     10.08693        -0.048808      0.006684     -0.004811
      1.40491      9.98213     10.04903         0.016204      0.009255     -0.019191
      3.51118     11.25267     10.04864        -0.011969     -0.024975      0.007110
      7.04743     12.49187     10.10772        -0.076034      0.001209     -0.010193
      4.92996      1.22849     10.14696         0.067926      0.011639     -0.021386
      5.63867     12.49175     10.10796         0.076748      0.004642     -0.010752
      7.75528      1.22849     10.14667        -0.070876      0.011415     -0.024816
      7.05775      2.45094     10.15408         0.388245      0.310104     -0.040451
      5.62750      2.45101     10.15448        -0.386968      0.306291     -0.048633
      7.06547     10.04171      9.90182         0.190546     -0.025107      0.012755
      4.93045     11.26750     10.03055         0.106518     -0.082929     -0.010773
      5.62017     10.04166      9.90162        -0.182330     -0.025342      0.019480
      7.75529     11.26753     10.03015        -0.097581     -0.083260     -0.004433
     11.29620     12.49364     10.10635        -0.062553     -0.001859     -0.000642
      9.17239      1.24147     10.13116        -0.025665      0.106647     -0.018611
      9.87855     12.49291     10.10292         0.061120     -0.036407     -0.000227
     11.98537      1.26076     10.11867         0.044318     -0.003164     -0.004113
     11.27419      2.51343     10.11559        -0.020407     -0.014264      0.000242
      9.08395      3.72790     10.09353        -0.451669     -0.040909     -0.031529
      9.84379      2.50059     10.12387         0.049116     -0.110655     -0.007212
     11.97828      3.76202     10.09635         0.030544     -0.011815     -0.008184
     11.24201      4.99782     10.05496        -0.054377     -0.021101     -0.008634
      9.06681      6.23206      9.86845        -0.658023     -0.083160     -0.148242
      9.79807      4.98473     10.02820         0.125137      0.005161      0.014393
     11.97238      6.24462     10.02011         0.049953      0.003806     -0.000654
     11.24127      7.49138      9.98644        -0.049382      0.016974     -0.020626
      9.10170      8.77453      9.89271        -0.263279     -0.058013     -0.046742
      9.79896      7.50077      9.90071         0.128037      0.083225      0.020136
     11.97899      8.72896     10.02466         0.021555      0.001149     -0.009999
     11.28104      9.98210     10.04936        -0.015909      0.011119     -0.021565
      9.17466     11.25234     10.04864         0.016768     -0.013822      0.003879
      9.85622      9.99705     10.01006         0.008974      0.078862     -0.009247
     11.98700     11.23608     10.08712         0.053615      0.006003     -0.007826
      4.98802      3.67021     10.11027        -0.585506     -0.726405      0.091948
      7.69729      3.67022     10.11043         0.593451     -0.728606      0.088305
      4.94204      6.23212      9.66062        -0.814300      0.698585     -0.188883
      7.74391      6.23135      9.66001         0.812049      0.719591     -0.189939
      4.95594      8.84804      9.77173        -0.204200      0.530958     -0.003149
      7.73025      8.84842      9.77172         0.191847      0.519207     -0.001987
      6.34328      5.03928      9.93619        -0.013281     -0.912030      0.069345
      6.34250      7.43227      8.89250         0.010629     -0.366408      0.875418
    total drift:                                0.001064      0.000951     -0.005091

  FREE ENERGIE OF THE ION-ELECTRON SYSTEM (eV)
  free  energy   TOTEN  =      -610.06788980 eV

  energy  without entropy=     -610.05850065  energy(sigma->0) =     -610.06319523

 stress matrix after NEB project (eV)
    -46.43428     -0.05282     -0.00735
     -0.05282    -41.70717     -0.35895
     -0.00735     -0.35269     -1.23532
  FORCES: max atom, RMS     1.101505    0.390236
  FORCE total and by dimension    2.971952    0.912030
  Stress total and by dimension   62.429282   46.434281
 writing wavefunctions

 total charge

[...]

 magnetization (x)

# of ion       s       p       d       tot
    1       -0.000  -0.007   0.000  -0.007
    2       -0.000  -0.003   0.000  -0.003
    3       -0.000  -0.006   0.000  -0.006
    4       -0.000  -0.007   0.000  -0.008
    5       -0.000  -0.005   0.000  -0.005
    6       -0.000  -0.011   0.000  -0.012
    7       -0.000  -0.003   0.000  -0.003
    8        0.001   0.003   0.000   0.004
    9       -0.001  -0.016   0.000  -0.017
   10       -0.000  -0.005   0.000  -0.005
   11       -0.000  -0.008   0.000  -0.008
   12        0.001   0.009   0.000   0.009
   13       -0.001  -0.015   0.000  -0.016
   14       -0.001  -0.012   0.000  -0.013
   15       -0.000  -0.007   0.000  -0.007
   16        0.000  -0.001   0.000  -0.000
   17       -0.000  -0.005   0.000  -0.005
   18       -0.000  -0.003   0.000  -0.003
   19        0.000  -0.003   0.000  -0.003
   20       -0.000  -0.009   0.000  -0.010
   21       -0.000  -0.004   0.000  -0.004
   22       -0.000  -0.003   0.000  -0.003
   23       -0.000  -0.004   0.000  -0.004
   24       -0.000  -0.003   0.000  -0.003
   25        0.000  -0.002   0.000  -0.002
   26        0.000  -0.002   0.000  -0.002
   27       -0.000  -0.010   0.000  -0.011
   28        0.000   0.001   0.000   0.001
   29       -0.000  -0.010   0.000  -0.011
   30        0.000   0.001   0.000   0.001
   31       -0.000  -0.006   0.000  -0.006
   32       -0.000  -0.007   0.000  -0.008
   33       -0.000  -0.007   0.000  -0.007
   34       -0.000  -0.003   0.000  -0.003
   35       -0.000  -0.003   0.000  -0.003
   36        0.001   0.003   0.000   0.004
   37       -0.000  -0.005   0.000  -0.005
   38       -0.000  -0.011   0.000  -0.012
   39       -0.000  -0.008   0.000  -0.008
   40        0.001   0.009   0.000   0.009
   41       -0.001  -0.016   0.000  -0.017
   42       -0.000  -0.005   0.000  -0.005
   43       -0.000  -0.007   0.000  -0.007
   44        0.000  -0.001   0.000  -0.000
   45       -0.001  -0.015   0.000  -0.016
   46       -0.001  -0.012   0.000  -0.013
   47        0.000  -0.003   0.000  -0.003
   48       -0.000  -0.009   0.000  -0.010
   49       -0.000  -0.005   0.000  -0.005
   50       -0.000  -0.003   0.000  -0.003
   51       -0.006  -0.055   0.000  -0.060
   52       -0.006  -0.055   0.000  -0.060
   53       -0.004  -0.033   0.000  -0.037
   54       -0.004  -0.033   0.000  -0.037
   55       -0.001  -0.035   0.000  -0.036
   56       -0.001  -0.035   0.000  -0.036
   57        0.013   0.015   1.903   1.931
   58        0.000  -0.002  -0.028  -0.029
tot         -0.015  -0.496   1.875   1.364