 vasp.5.4.4.18Apr17-6-g9f103f2a35 (build Feb 25 2019 10:51:38) complex

 executed on             LinuxIFC date 2021.06.16  07:44:31

 INCAR:
 POTCAR:    PAW_PBE C 08Apr2002
 POTCAR:    PAW_PBE N 08Apr2002
 POTCAR:    PAW_PBE Fe 06Sep2000
 POTCAR:    PAW_PBE Mn 06Sep2000

 POTCAR:    PAW_PBE C 08Apr2002
   VRHFIN =C: s2p2

   TITEL  = PAW_PBE C 08Apr2002
   POMASS =   12.011; ZVAL   =    4.000    mass and valenz
   ENMAX  =  400.000; ENMIN  =  300.000 eV

 POTCAR:    PAW_PBE N 08Apr2002
   VRHFIN =N: s2p3

   TITEL  = PAW_PBE N 08Apr2002
   POMASS =   14.001; ZVAL   =    5.000    mass and valenz
   ENMAX  =  400.000; ENMIN  =  300.000 eV

 POTCAR:    PAW_PBE Fe 06Sep2000
   VRHFIN =Fe:  d7 s1

   TITEL  = PAW_PBE Fe 06Sep2000
   POMASS =   55.847; ZVAL   =    8.000    mass and valenz
   ENMAX  =  267.882; ENMIN  =  200.911 eV

 POTCAR:    PAW_PBE Mn 06Sep2000
   VRHFIN =Mn: d6 s1

   TITEL  = PAW_PBE Mn 06Sep2000
   POMASS =   54.938; ZVAL   =    7.000    mass and valenz
   ENMAX  =  269.864; ENMIN  =  202.398 eV

  PAW_PBE C 08Apr2002                   :
  PAW_PBE N 08Apr2002                   :
  PAW_PBE Fe 06Sep2000                  :
  PAW_PBE Mn 06Sep2000                  :

 POSCAR:  C  N Fe Mn
  positions in cartesian coordinates
 exchange correlation table for  LEXCH =        8
   RHO(1)=    0.500       N(1)  =     2000
   RHO(2)=  100.500       N(2)  =     4000

 VTST: version 3.2, (02/03/18)

 CHAIN: initializing optimizer

 OPT: Using VASP Conjugate-Gradient optimizer
 CHAIN: Read ICHAIN            0

 POSCAR:  C  N Fe Mn
  positions in cartesian coordinates

 ion  position               nearest neighbor table
   1  0.222  0.002  0.498-   3 1.43  19 1.43   4 1.44
   2  0.058  0.102  0.497-  36 1.43   3 1.43   7 1.44
   3  0.111  0.002  0.497-   1 1.43   2 1.43  17 1.43
   4  0.278  0.104  0.500-  21 1.42   5 1.44   1 1.44
   5  0.225  0.205  0.503-   7 1.43   4 1.44   8 1.45
   6  0.058  0.303  0.499-  40 1.43  11 1.43   7 1.43
   7  0.113  0.203  0.500-   5 1.43   6 1.43   2 1.44
   8  0.282  0.307  0.509-  25 1.44   5 1.45   9 1.47
   9  0.223  0.408  0.510-  53 1.39  11 1.44   8 1.47
  10  0.054  0.504  0.501-  14 1.43  44 1.44  11 1.44
  11  0.112  0.404  0.502-   6 1.43   9 1.44  10 1.44
  12  0.222  0.603  0.506-  53 1.39  14 1.43  15 1.44
  13  0.053  0.702  0.498-  14 1.43  18 1.43  48 1.44
  14  0.110  0.604  0.501-  13 1.43  10 1.43  12 1.43
  15  0.281  0.703  0.501-  56 1.41  16 1.44  12 1.44
  16  0.223  0.801  0.498-  18 1.44  15 1.44  19 1.44
  17  0.055  0.901  0.496-  52 1.43   3 1.43  18 1.44
  18  0.110  0.801  0.497-  13 1.43  17 1.44  16 1.44
  19  0.277  0.903  0.497-   1 1.43  30 1.43  16 1.44
  20  0.555  0.001  0.494-  23 1.42  32 1.42  22 1.42
  21  0.389  0.101  0.499-   4 1.42  26 1.42  22 1.43
  22  0.444  0.002  0.496-  20 1.42  30 1.43  21 1.43
  23  0.612  0.099  0.495-  24 1.41  20 1.42  34 1.43
  24  0.557  0.197  0.499-  27 1.41  23 1.41  26 1.43
  25  0.395  0.301  0.510-  54 1.39  26 1.43   8 1.44
  26  0.446  0.200  0.501-  21 1.42  24 1.43  25 1.43
  27  0.615  0.294  0.501-  28 1.39  24 1.41  38 1.41
  28  0.562  0.391  0.510-  54 1.37  55 1.37  27 1.39
  29  0.554  0.804  0.496-  57 1.39  32 1.41  31 1.43
  30  0.388  0.903  0.497-  31 1.42  22 1.43  19 1.43
  31  0.442  0.804  0.497-  56 1.40  30 1.42  29 1.43
  32  0.610  0.902  0.494-  29 1.41  20 1.42  50 1.43
  33  0.890  0.001  0.494-  35 1.43  52 1.43  36 1.44
  34  0.724  0.100  0.493-  23 1.43  35 1.43  39 1.43
  35  0.778  0.000  0.493-  50 1.43  34 1.43  33 1.43
  36  0.946  0.101  0.495-   2 1.43  37 1.43  33 1.44
  37  0.891  0.201  0.495-  39 1.42  36 1.43  40 1.43
  38  0.725  0.298  0.498-  27 1.41  39 1.42  43 1.43
  39  0.780  0.199  0.495-  38 1.42  37 1.42  34 1.43
  40  0.946  0.302  0.497-  37 1.43   6 1.43  41 1.44
  41  0.889  0.401  0.498-  43 1.43  44 1.43  40 1.44
  42  0.718  0.497  0.503-  55 1.38  43 1.44  47 1.45
  43  0.778  0.399  0.500-  38 1.43  41 1.43  42 1.44
  44  0.942  0.503  0.499-  41 1.43  10 1.44  45 1.44
  45  0.884  0.601  0.499-  48 1.43  44 1.44  47 1.46
  46  0.714  0.702  0.498-  57 1.39  51 1.44  47 1.45
  47  0.770  0.600  0.500-  42 1.45  46 1.45  45 1.46
  48  0.941  0.700  0.497-  49 1.43  45 1.43  13 1.44
  49  0.886  0.800  0.495-  48 1.43  51 1.43  52 1.44
  50  0.721  0.901  0.494-  35 1.43  32 1.43  51 1.43
  51  0.774  0.800  0.495-  50 1.43  49 1.43  46 1.44
  52  0.944  0.900  0.495-  33 1.43  17 1.43  49 1.44
  53  0.273  0.507  0.517-   9 1.39  12 1.39  58 1.95
  54  0.456  0.392  0.520-  28 1.37  25 1.39  58 1.95
  55  0.611  0.489  0.510-  28 1.37  42 1.38  59 1.96
  56  0.390  0.705  0.500-  31 1.40  15 1.41  59 1.96
  57  0.606  0.707  0.498-  46 1.39  29 1.39  59 1.95
  58  0.398  0.510  0.574-  54 1.95  53 1.95  59 2.14
  59  0.500  0.596  0.509-  57 1.95  55 1.96  56 1.96  58 2.14

  LATTYP: Found a triclinic cell.
 ALAT       =    26.7079972750
 B/A-ratio  =     0.4795080615
 C/A-ratio  =     0.4657593706
 COS(alpha) =     0.0070371095
 COS(beta)  =     0.4527751865
 COS(gamma) =     0.4904883383

  Lattice vectors:

 A1 = (  13.0999612035, -12.0008297363, -19.9421217665)
 A2 = (  12.8067000000,   0.0000000000,   0.0000000000)
 A3 = (   0.0875381232, -12.4391919885,   0.0000000000)

Analysis of symmetry for initial positions (statically):
 Subroutine PRICEL returns:
 Original cell was already a primitive cell.

 Routine SETGRP: Setting up the symmetry group for a
 triclinic supercell.

 Subroutine GETGRP returns: Found  1 space group operations
 (whereof  1 operations were pure point group operations)
 out of a pool of  2 trial point group operations.

The static configuration has the point symmetry C_1 .

Analysis of symmetry for dynamics (positions and initial velocities):
 Subroutine PRICEL returns:
 Original cell was already a primitive cell.

[...]

The dynamic configuration has the point symmetry C_1 .

Analysis of structural, dynamic, and magnetic symmetry:
 Subroutine PRICEL returns:
 Original cell was already a primitive cell.

 Routine SETGRP: Setting up the symmetry group for a
 triclinic supercell.

 Subroutine GETGRP returns: Found  1 space group operations
 (whereof  1 operations were pure point group operations)
 out of a pool of  2 trial point group operations.

The magnetic configuration has the point symmetry C_1 .

 Subroutine INISYM returns: Found  1 space group operations
 (whereof  1 operations are pure point group operations),
 and found     1 'primitive' translations

 KPOINTS: KPOINTS created by Atomic Simulation Env

Automatic generation of k-mesh.
Space group operators:
 irot       det(A)        alpha          n_x          n_y          n_z        tau_x        tau_y        tau_z
    1     1.000000     0.000000     1.000000     0.000000     0.000000     0.000000     0.000000     0.000000

 Subroutine IBZKPT returns following result:

 Found      2 irreducible k-points:

 Following reciprocal coordinates:
            Coordinates               Weight
  0.250000  0.250000 -0.000000      2.000000
 -0.250000  0.250000  0.000000      2.000000

 Following cartesian coordinates:
            Coordinates               Weight
  0.019521  0.020235  0.000646      2.000000
 -0.019521  0.019960  0.000237      2.000000

 Subroutine IBZKPT_HF returns following result:

 Found      4 k-points in 1st BZ
 the following      4 k-points will be used (e.g. in the exchange kernel)
 Following reciprocal coordinates:   # in IRBZ
  0.250000  0.250000 -0.000000    0.25000000   1 t-inv F
 -0.250000  0.250000  0.000000    0.25000000   2 t-inv F
 -0.250000 -0.250000  0.000000    0.25000000   1 t-inv T
  0.250000 -0.250000 -0.000000    0.25000000   2 t-inv T

 SYSTEM =  unknown system
 POSCAR =   C  N Fe Mn

 Startparameter for this run:
   NWRITE =      2    write-flag & timer
   PREC   = accura    normal or accurate (medium, high low for compatibility)
   ISTART =      1    job   : 0-new  1-cont  2-samecut
   ICHARG =      0    charge: 1-file 2-atom 10-const
   ISPIN  =      2    spin polarized calculation?
   LNONCOLLINEAR =      F non collinear calculations
   LSORBIT =      F    spin-orbit coupling
   INIWAV =      1    electr: 0-lowe 1-rand  2-diag
   LASPH  =      T    aspherical Exc in radial PAW
   METAGGA=      F    non-selfconsistent MetaGGA calc.

 Electronic Relaxation 1
   ENCUT  =  500.0 eV  36.75 Ry    6.06 a.u.  23.35 22.68 36.37*2*pi/ulx,y,z
   ENINI  =  500.0     initial cutoff
   ENAUG  =  644.9 eV  augmentation charge cutoff
   NELM   =    250;   NELMIN=  2; NELMDL=  0     # of ELM steps
   EDIFF  = 0.1E-03   stopping-criterion for ELM
   LREAL  =      F    real-space projection
   NLSPLINE    = F    spline interpolate recip. space projectors
   LCOMPAT=      F    compatible to vasp.4.4
   GGA_COMPAT  = T    GGA compatible to vasp.4.4-vasp.4.6
   LMAXPAW     = -100 max onsite density
   LMAXMIX     =    2 max onsite mixed and CHGCAR
   VOSKOWN=      0    Vosko Wilk Nusair interpolation
   ROPT   =    0.00000   0.00000   0.00000   0.00000
 Ionic relaxation
   EDIFFG = -.3E-01   stopping-criterion for IOM
   NSW    =      0    number of steps for IOM
   NBLOCK =      1;   KBLOCK =      1    inner block; outer block
   IBRION =     -1    ionic relax: 0-MD 1-quasi-New 2-CG
   NFREE  =      1    steps in history (QN), initial steepest desc. (CG)
   ISIF   =      2    stress and relaxation
   IWAVPR =     10    prediction:  0-non 1-charg 2-wave 3-comb
   ISYM   =      3    0-nonsym 1-usesym 2-fastsym
   LCORR  =      T    Harris-Foulkes like correction to forces

   POTIM  = 0.5000    time-step for ionic-motion
   TEIN   =    0.0    initial temperature
   TEBEG  =    0.0;   TEEND  =   0.0 temperature during run
   SMASS  =  -3.00    Nose mass-parameter (am)
   estimated Nose-frequenzy (Omega)   =  0.10E-29 period in steps =****** mass=  -0.375E-26a.u.
   SCALEE = 1.0000    scale energy and forces
   NPACO  =    256;   APACO  = 16.0  distance and # of slots for P.C.
   PSTRESS=    0.0 pullay stress

  Mass of Ions in am
   POMASS =  12.01 14.00 55.85 54.94
  Ionic Valenz
   ZVAL   =   4.00  5.00  8.00  7.00
  Atomic Wigner-Seitz radii
  virtual crystal weights
   VCA    =   1.00  1.00  1.00  1.00
   NELECT =     248.0000    total number of electrons
   NUPDOWN=      -1.0000    fix difference up-down

 DOS related values:
   EMIN   =  10.00;   EMAX   =-10.00  energy-range for DOS
   EFERMI =   0.00
   ISMEAR =     0;   SIGMA  =   0.10  broadening in eV -4-tet -1-fermi 0-gaus

 Electronic relaxation 2 (details)
   IALGO  =     53    algorithm
   LDIAG  =      T    sub-space diagonalisation (order eigenvalues)
   LSUBROT=      F    optimize rotation matrix (better conditioning)
   TURBO    =      0    0=normal 1=particle mesh
   IRESTART =      0    0=no restart 2=restart with 2 vectors
   NREBOOT  =      0    no. of reboots
   NMIN     =      0    reboot dimension
   EREF     =   0.00    reference energy to select bands
   IMIX   =      4    mixing-type and parameters
     AMIX     =   0.40;   BMIX     =  1.00
     AMIX_MAG =   1.60;   BMIX_MAG =  1.00
     AMIN     =   0.10
     WC   =   100.;   INIMIX=   1;  MIXPRE=   1;  MAXMIX= -45

 Intra band minimization:
[...]
   39        0.868   1.783   0.000   2.651
   40        0.862   1.761   0.000   2.623
   41        0.866   1.756   0.000   2.622
   42        0.855   1.706   0.000   2.560
   43        0.863   1.777   0.000   2.640
   44        0.860   1.761   0.000   2.621
   45        0.856   1.732   0.000   2.588
   46        0.851   1.696   0.000   2.547
   47        0.847   1.745   0.000   2.592
   48        0.860   1.762   0.000   2.623
   49        0.863   1.751   0.000   2.614
   50        0.867   1.762   0.000   2.629
   51        0.860   1.763   0.000   2.623
   52        0.862   1.759   0.000   2.621
   53        1.228   2.664   0.000   3.893
   54        1.230   2.695   0.000   3.925
   55        1.232   2.698   0.000   3.930
   56        1.218   2.666   0.000   3.884
   57        1.226   2.678   0.000   3.903
   58        0.418   0.352   6.413   7.183
   59        0.358   0.413   5.040   5.811
tot         51.747 105.590  11.453 168.791

 magnetization (x)

[...]

  FORCE on cell =-STRESS in cart. coord.  units (eV):
  Direction    XX          YY          ZZ          XY          YZ          ZX
  Alpha Z   104.67707   104.67707   104.67707
  Ewald   48383.55058 48270.31266-56690.61399    42.88918    49.88101   -58.95538
  Hartree 47788.62687 47737.69014-47043.59879     6.69775    12.49458   -43.04672
  E(xc)    -723.96354  -723.97073  -738.23444    -0.27507     0.62945     0.66546
  Local  -98822.38882-98666.72047100577.05140   -40.87192   -56.83780   104.64881
  n-local  -177.19270  -177.85152  -174.11406     1.00848     0.05066     0.58381
  augment    44.01624    43.99368    47.90971     1.58362    -0.89791    -2.02582
  Kinetic  3688.47293  3695.55217  4223.52353   -12.98644    -4.94400    -3.16333
  Fock     -329.88700  -330.54344  -306.75569    -1.61597    -0.96473     0.84984
  Total     -44.08837   -46.86044    -0.15526    -3.57036    -0.58875    -0.44333
  in kB     -22.23483   -23.63285    -0.07830    -1.80062    -0.29692    -0.22358

 VOLUME and BASIS-vectors are now :
  energy-cutoff  :      500.00
  volume of cell :     3176.88
      direct lattice vectors                 reciprocal lattice vectors
    12.806700000  0.000000000  0.000000000     0.078084128  0.000549500  0.000817595
    -0.087538123 12.439191989  0.000000000     0.000000000  0.080391074  0.001767135
    -0.205723080 -0.438362252 19.942121767     0.000000000  0.000000000  0.050145116

  length of vectors
    12.806700000 12.439500000 19.948000000     0.078090341  0.080410494  0.050145116

 FORCES acting on ions:
    Electron-Ion                     Ewald-Force                    Non-Local-Force
   0.483E+01 -.481E+01 0.866E+01   -.490E+01 0.469E+01 -.869E+01   0.137E+00 -.468E-01 0.304E-01
   -.164E+01 -.119E+01 0.110E+02   0.179E+01 0.111E+01 -.111E+02   -.155E+00 0.607E-01 0.272E-01
   0.641E+01 -.110E+00 0.856E+01   -.641E+01 -.381E-02 -.851E+01   -.609E-01 0.880E-01 -.515E-01
   0.139E+02 0.222E+01 0.490E+01   -.142E+02 -.234E+01 -.483E+01   0.287E+00 0.157E+00 -.719E-01
   0.626E+01 0.448E+01 -.133E+01   -.632E+01 -.458E+01 0.128E+01   0.886E-01 0.958E-01 0.401E-01
   0.315E+01 0.512E+01 0.156E+02   -.304E+01 -.542E+01 -.157E+02   -.598E-01 0.288E+00 0.103E+00
   0.532E+01 0.591E+01 0.717E+01   -.536E+01 -.602E+01 -.714E+01   -.260E-02 0.102E+00 -.342E-01
   0.208E+02 0.142E+02 -.117E+02   -.211E+02 -.145E+02 0.115E+02   0.292E+00 0.704E-01 0.193E+00
   0.248E+02 0.457E+02 -.376E+01   -.266E+02 -.483E+02 0.309E+01   0.179E+01 0.303E+01 0.666E+00
   0.145E+02 0.322E+01 0.811E+01   -.147E+02 -.304E+01 -.798E+01   0.218E+00 -.137E+00 -.117E+00
   0.165E+02 0.960E+01 0.136E+02   -.169E+02 -.987E+01 -.137E+02   0.382E+00 0.201E+00 0.105E+00
   0.266E+02 -.324E+02 0.148E+02   -.283E+02 0.356E+02 -.157E+02   0.169E+01 -.302E+01 0.931E+00
   0.110E+02 -.525E+01 0.177E+02   -.112E+02 0.545E+01 -.177E+02   0.224E+00 -.200E+00 0.526E-01
   0.175E+02 -.762E+01 0.140E+02   -.176E+02 0.816E+01 -.141E+02   0.131E+00 -.472E+00 0.828E-01
   0.327E+02 -.795E+01 0.215E+02   -.359E+02 0.778E+01 -.216E+02   0.304E+01 0.110E+00 0.119E+00
   0.152E+02 -.975E+01 0.181E+02   -.155E+02 0.969E+01 -.181E+02   0.281E+00 -.909E-01 0.675E-01
   0.223E+01 -.189E+01 0.133E+02   -.211E+01 0.195E+01 -.133E+02   -.898E-01 0.953E-02 0.440E-01
   0.726E+01 -.658E+01 0.142E+02   -.751E+01 0.640E+01 -.141E+02   0.217E+00 0.126E+00 -.730E-01
   0.129E+02 -.757E+01 0.147E+02   -.133E+02 0.799E+01 -.147E+02   0.252E+00 -.230E+00 0.394E-01
   -.197E+01 -.204E+01 0.260E+02   0.168E+01 0.207E+01 -.260E+02   0.252E+00 -.750E-01 0.159E-01
   0.591E+01 0.660E+01 0.162E+02   -.642E+01 -.702E+01 -.162E+02   0.407E+00 0.412E+00 0.756E-01
   0.519E+01 -.437E+01 0.215E+02   -.501E+01 0.430E+01 -.216E+02   -.124E+00 0.799E-02 0.182E-01
   -.772E+01 0.632E+01 0.271E+02   0.790E+01 -.679E+01 -.272E+02   -.129E+00 0.493E+00 0.947E-01
   -.177E+01 0.179E+02 0.192E+02   0.168E+01 -.186E+02 -.190E+02   0.134E+00 0.682E+00 -.137E+00
   0.357E+02 0.405E+02 -.125E+01   -.380E+02 -.437E+02 0.567E+00   0.239E+01 0.316E+01 0.661E+00
   0.791E+01 0.187E+02 0.170E+02   -.827E+01 -.193E+02 -.172E+02   0.296E+00 0.572E+00 0.191E+00
   -.201E+02 0.246E+02 0.228E+02   0.209E+02 -.258E+02 -.232E+02   -.695E+00 0.111E+01 0.341E+00
   -.312E+02 0.334E+02 -.512E+01   0.332E+02 -.371E+02 0.437E+01   -.216E+01 0.370E+01 0.770E+00
   0.347E+01 -.319E+02 0.279E+02   -.532E+01 0.352E+02 -.280E+02   0.166E+01 -.317E+01 0.126E+00
   0.707E+01 -.151E+02 0.194E+02   -.709E+01 0.154E+02 -.193E+02   0.132E+00 -.315E+00 -.372E-01
   -.463E+01 -.341E+02 0.301E+02   0.588E+01 0.369E+02 -.305E+02   -.111E+01 -.273E+01 0.471E+00
   -.945E+01 -.132E+02 0.263E+02   0.931E+01 0.136E+02 -.263E+02   0.849E-01 -.425E+00 0.608E-01
   -.569E+01 -.868E+00 0.206E+02   0.584E+01 0.817E+00 -.206E+02   -.113E+00 0.347E-01 0.139E-01
   -.889E+01 0.334E+01 0.275E+02   0.893E+01 -.345E+01 -.275E+02   -.111E+00 0.148E+00 0.437E-02
   -.787E+01 0.753E+00 0.257E+02   0.804E+01 -.794E+00 -.258E+02   -.188E+00 -.303E-01 0.582E-01
   -.834E+00 0.303E+01 0.190E+02   0.101E+01 -.318E+01 -.191E+02   -.164E+00 0.130E+00 0.402E-01
   -.842E+01 0.247E+01 0.221E+02   0.870E+01 -.253E+01 -.221E+02   -.261E+00 0.807E-01 0.183E-01
   -.205E+02 0.749E+01 0.220E+02   0.212E+02 -.768E+01 -.221E+02   -.701E+00 0.155E+00 0.129E+00
   -.978E+01 0.733E+01 0.265E+02   0.101E+02 -.763E+01 -.266E+02   -.278E+00 0.313E+00 0.806E-01
   -.174E+01 0.712E+00 0.192E+02   0.186E+01 -.796E+00 -.192E+02   -.142E+00 0.449E-01 0.559E-01
   -.824E+01 0.179E+01 0.137E+02   0.872E+01 -.160E+01 -.137E+02   -.419E+00 -.148E+00 0.439E-01
   -.468E+02 -.167E+02 0.168E+00   0.511E+02 0.174E+02 -.688E+00   -.417E+01 -.648E+00 0.489E+00
   -.199E+02 -.235E+01 0.985E+01   0.205E+02 0.229E+01 -.986E+01   -.579E+00 0.989E-01 0.366E-02
   0.106E+01 -.472E+01 0.889E+01   -.116E+01 0.503E+01 -.887E+01   0.901E-01 -.319E+00 -.174E-01
   0.174E+01 -.716E+00 0.989E+01   -.165E+01 0.964E+00 -.991E+01   -.245E-01 -.178E+00 0.282E-01
   -.415E+02 0.815E+01 0.116E+02   0.451E+02 -.829E+01 -.115E+02   -.373E+01 0.204E+00 -.111E+00
   -.133E+02 -.617E+01 0.587E+01   0.136E+02 0.641E+01 -.592E+01   -.252E+00 -.253E+00 0.579E-01
   -.355E+00 -.761E+00 0.153E+02   0.432E+00 0.613E+00 -.152E+02   -.150E+00 0.105E+00 0.575E-02
   -.438E+01 -.335E+01 0.165E+02   0.466E+01 0.314E+01 -.165E+02   -.310E+00 0.178E+00 0.234E-01
   -.130E+02 -.458E+01 0.230E+02   0.132E+02 0.483E+01 -.230E+02   -.231E+00 -.135E+00 0.111E-01
   -.150E+02 -.431E+00 0.173E+02   0.155E+02 0.540E+00 -.173E+02   -.435E+00 -.152E+00 0.341E-01
   -.322E+00 0.186E+01 0.167E+02   0.423E+00 -.187E+01 -.167E+02   -.105E+00 0.451E-01 0.676E-02
   -.323E+01 -.246E+01 -.301E+02   0.237E+02 0.340E+01 0.320E+02   -.195E+02 -.107E+01 -.211E+01
   0.290E+02 0.528E+01 -.530E+02   -.389E+02 0.116E+02 0.568E+02   0.974E+01 -.159E+02 -.378E+01
   -.274E+02 -.585E+02 -.320E+02   0.181E+02 0.757E+02 0.344E+02   0.889E+01 -.164E+02 -.226E+01
   0.273E+01 0.286E+02 0.434E+02   0.622E+01 -.449E+02 -.440E+02   -.839E+01 0.154E+02 0.592E+00
   -.103E+02 0.362E+02 0.337E+02   0.108E+01 -.520E+02 -.340E+02   0.884E+01 0.149E+02 0.295E+00
   0.233E+02 -.380E+02 -.772E+03   -.246E+02 0.363E+02 0.765E+03   0.366E+00 0.119E+01 0.819E+01
   -.146E+02 -.185E+02 0.381E+02   0.170E+02 0.218E+02 -.369E+02   -.210E+01 -.301E+01 -.186E+01
   0.446E+01 0.157E+01 -.453E+01   0.256E-12 -.149E-12 -.284E-13   -.459E+01 -.159E+01 0.484E+01

 POSITION                                       TOTAL-FORCE (eV/Angst)
      2.74635     -0.18900      9.93537         0.066910     -0.179346     -0.005330
      0.62592      1.05377      9.91408        -0.015217     -0.024784     -0.005735
      1.32065     -0.19754      9.91795        -0.062173     -0.020177     -0.009047
      3.45214      1.06839      9.97431         0.087862      0.037704     -0.008367
      2.76261      2.33315     10.03024         0.023557     -0.004116     -0.002180
      0.60761      3.54919      9.95194         0.046769      0.004393      0.031067
      1.33069      2.31138      9.96587        -0.043428      0.006048     -0.005693
      3.48106      3.59208     10.14593         0.063411     -0.173612     -0.006407
      2.72062      4.85158     10.16509         0.095232      0.528954      0.033836
      0.55076      6.04364      9.99233         0.021451      0.042534      0.005951
      1.29299      4.80615     10.01694        -0.028437     -0.071197      0.027173
      2.68536      7.28461     10.08674         0.004424     -0.034931      0.048269
      0.51948      8.51087      9.92689         0.072219     -0.007373      0.023973
      1.25432      7.28846      9.99221        -0.040349      0.048747      0.031434
      3.42788      8.52032      9.99655        -0.072685     -0.050677     -0.003944
      2.67745      9.74619      9.93419         0.004103     -0.154359      0.027118
      0.52806     10.99248      9.89696         0.027813      0.072677      0.007588
      1.24070      9.74519      9.91847        -0.017898     -0.050018      0.008463
      3.36513     11.01114      9.92040        -0.076740      0.182810      0.002366
      7.00797     -0.20208      9.85844        -0.023960     -0.047484      0.024353
      4.87064      1.04382      9.94513        -0.090990      0.018605      0.018549
      5.58768     -0.19237      9.89141         0.049911     -0.057967      0.004957
      7.73201      1.01777      9.86553         0.038944      0.040464      0.024897
      7.01839      2.23587      9.94741         0.050321      0.032589      0.013183
      4.92370      3.51959     10.16617         0.158094      0.101889      0.011943
      5.59355      2.26873     10.00033        -0.045438      0.029992      0.033381
      7.75126      3.44259      9.98613         0.061048     -0.026357      0.004465
      7.05252      4.63526     10.16908        -0.266452      0.138927      0.054745
      6.92518      9.78480      9.88977        -0.098817      0.025192     -0.013413
      4.79235     11.00914      9.90318         0.120194     -0.024522      0.000529
      5.49285      9.77711      9.90931         0.084028     -0.021363      0.063270
      7.63080     11.00712      9.85284        -0.052679      0.028699      0.015037
     11.29409     -0.20850      9.84862         0.026877     -0.020004      0.020341
      9.15721      1.02476      9.84052        -0.075873      0.034522      0.033437
      9.86502     -0.21484      9.83157        -0.027253     -0.072670      0.025897
     12.00724      1.03887      9.86850         0.005453     -0.008041      0.012345
     11.29643      2.28077      9.86933        -0.006021      0.022244      0.025472
      9.16272      3.48662      9.92432        -0.050144     -0.024088      0.021876
      9.87429      2.26069      9.86222        -0.021498      0.033956      0.025621
     11.98280      3.53652      9.90740        -0.026916     -0.041094      0.024615
     11.24873      4.77398      9.93600         0.031023      0.036382      0.020491
      9.04529      5.95905     10.03909        -0.151989     -0.058351     -0.004983
      9.82310      4.74939      9.96575        -0.014094      0.038785     -0.006767
     11.92234      6.03273      9.95636        -0.000616     -0.034153      0.006329
     11.16024      7.25935      9.94267         0.074737      0.063430      0.010894
      8.98441      8.50902      9.93361        -0.270143      0.077630     -0.021588
      9.70249      7.24438      9.97332         0.023677     -0.032868      0.004801
     11.88677      8.49451      9.90998        -0.084854     -0.035709      0.011831
     11.17811      9.73599      9.88082        -0.043316     -0.029964      0.016754
      9.05757     10.99270      9.84682        -0.008552      0.104203      0.014272
      9.74452      9.73528      9.88042         0.019482     -0.047891      0.005067
     11.90285     10.98186      9.86984        -0.007461      0.044340      0.008539
      3.34619      6.07843     10.31273        -0.650449     -0.221316     -0.350673
      5.69807      4.65212     10.36766         0.638529     -0.426827     -0.330933
      7.67234      5.85667     10.17380         0.325768     -0.629606     -0.075750
      4.83497      8.54663      9.97982        -0.170308      0.436897      0.016155
      7.59953      8.57102      9.93166         0.381201      0.332642      0.006265
      4.93634      6.08783     11.44972        -0.418421     -0.247145      0.405611
      6.24319      7.19070     10.15610         0.360132      0.312753     -0.382350
    total drift:                                0.040723      0.082541      0.012340

  FREE ENERGIE OF THE ION-ELECTRON SYSTEM (eV)
  free  energy   TOTEN  =      -622.15110206 eV

  energy  without entropy=     -622.15024715  energy(sigma->0) =     -622.15067460

 stress matrix after NEB project (eV)
    -44.08837     -3.57128     -0.44333
     -3.57036    -46.86044     -0.58593
     -0.44468     -0.58875     -0.15526
  FORCES: max atom, RMS     0.836312    0.257752
  FORCE total and by dimension    1.979829    0.650449
  Stress total and by dimension   64.546840   46.860435
 writing wavefunctions

 total charge

[...]

 magnetization (x)

# of ion       s       p       d       tot
    1       -0.000  -0.000   0.000  -0.000
    2       -0.000  -0.003   0.000  -0.003
    3        0.000   0.003   0.000   0.003
    4        0.000   0.003   0.000   0.004
    5       -0.000  -0.004   0.000  -0.005
    6       -0.000  -0.002   0.000  -0.002
    7        0.000   0.004   0.000   0.004
    8        0.001   0.009   0.000   0.010
    9       -0.000  -0.006   0.000  -0.006
   10       -0.001  -0.008   0.000  -0.009
   11        0.001   0.005   0.000   0.006
   12        0.000  -0.005   0.000  -0.004
   13        0.000   0.001   0.000   0.001
   14        0.001   0.005   0.000   0.006
   15        0.001   0.004   0.000   0.004
   16       -0.000  -0.001   0.000  -0.002
   17       -0.000  -0.003   0.000  -0.004
   18        0.000   0.004   0.000   0.004
   19        0.000   0.000   0.000   0.000
   20       -0.000   0.000   0.000   0.000
   21       -0.000  -0.002   0.000  -0.003
   22        0.000   0.001   0.000   0.002
   23        0.000   0.002   0.000   0.002
   24       -0.000  -0.000   0.000  -0.000
   25       -0.001  -0.004   0.000  -0.004
   26        0.001   0.004   0.000   0.005
   27        0.000   0.001   0.000   0.001
   28        0.001   0.010   0.000   0.011
   29        0.002   0.005   0.000   0.007
   30       -0.000  -0.003   0.000  -0.003
   31        0.001   0.003   0.000   0.004
   32        0.000   0.000   0.000   0.000
   33       -0.000  -0.002   0.000  -0.002
   34       -0.000   0.000   0.000   0.000
   35        0.000   0.001   0.000   0.002
   36        0.000   0.003   0.000   0.004
   37       -0.000  -0.005   0.000  -0.005
   38        0.000   0.001   0.000   0.001
   39        0.000   0.002   0.000   0.002
   40        0.000   0.003   0.000   0.003
   41       -0.000  -0.004   0.000  -0.005
   42       -0.000  -0.006   0.000  -0.006
   43        0.000   0.003   0.000   0.003
   44        0.000   0.005   0.000   0.005
   45       -0.000  -0.003   0.000  -0.004
   46        0.000  -0.000   0.000  -0.000
   47        0.000   0.004   0.000   0.004
   48        0.000   0.003   0.000   0.004
   49       -0.000  -0.002   0.000  -0.002
   50       -0.000  -0.003   0.000  -0.004
   51       -0.000   0.001   0.000   0.001
   52        0.000   0.003   0.000   0.003
   53        0.004   0.027   0.000   0.031
   54        0.004   0.021   0.000   0.025
   55       -0.005  -0.017   0.000  -0.022
   56       -0.006  -0.029   0.000  -0.034
   57       -0.009  -0.049   0.000  -0.058
   58       -0.028   0.006   2.802   2.781
   59        0.017   0.006   2.954   2.978
tot         -0.016  -0.008   5.757   5.733