 vasp.5.4.4.18Apr17-6-g9f103f2a35 (build Feb 25 2019 10:51:38) complex

 executed on             LinuxIFC date 2021.07.24  10:51:50

 INCAR:
 POTCAR:    PAW_PBE C 08Apr2002
 POTCAR:    PAW_PBE N 08Apr2002
 POTCAR:    PAW_PBE Co 02Aug2007
 POTCAR:    PAW_PBE Fe 06Sep2000

 POTCAR:    PAW_PBE C 08Apr2002
   VRHFIN =C: s2p2

   TITEL  = PAW_PBE C 08Apr2002
   POMASS =   12.011; ZVAL   =    4.000    mass and valenz
   ENMAX  =  400.000; ENMIN  =  300.000 eV

 POTCAR:    PAW_PBE N 08Apr2002
   VRHFIN =N: s2p3

   TITEL  = PAW_PBE N 08Apr2002
   POMASS =   14.001; ZVAL   =    5.000    mass and valenz
   ENMAX  =  400.000; ENMIN  =  300.000 eV

 POTCAR:    PAW_PBE Co 02Aug2007
   VRHFIN =Co: d8 s1

   TITEL  = PAW_PBE Co 02Aug2007
   POMASS =   58.933; ZVAL   =    9.000    mass and valenz
   ENMAX  =  267.968; ENMIN  =  200.976 eV

 POTCAR:    PAW_PBE Fe 06Sep2000
   VRHFIN =Fe:  d7 s1

   TITEL  = PAW_PBE Fe 06Sep2000
   POMASS =   55.847; ZVAL   =    8.000    mass and valenz
   ENMAX  =  267.882; ENMIN  =  200.911 eV

  PAW_PBE C 08Apr2002                   :
  PAW_PBE N 08Apr2002                   :
  PAW_PBE Co 02Aug2007                  :
  PAW_PBE Fe 06Sep2000                  :

 POSCAR:  C  N Co Fe
  positions in cartesian coordinates
 exchange correlation table for  LEXCH =        8
   RHO(1)=    0.500       N(1)  =     2000
   RHO(2)=  100.500       N(2)  =     4000

 VTST: version 3.2, (02/03/18)

 CHAIN: initializing optimizer

 OPT: Using VASP Conjugate-Gradient optimizer
 CHAIN: Read ICHAIN            0

 POSCAR:  C  N Co Fe
  positions in cartesian coordinates

 ion  position               nearest neighbor table
   1  0.222  0.999  0.500-   3 1.41  17 1.42   4 1.42
   2  0.055  0.099  0.500-  34 1.41   7 1.43   3 1.43
   3  0.110  0.999  0.500-   1 1.41  15 1.43   2 1.43
   4  0.278  0.097  0.500-  19 1.41   5 1.42   1 1.42
   5  0.221  0.195  0.500-   7 1.41   8 1.42   4 1.42
   6  0.056  0.299  0.500-  38 1.43   7 1.44  10 1.45
   7  0.110  0.198  0.500-   5 1.41   2 1.43   6 1.44
   8  0.278  0.293  0.500-  53 1.38   5 1.42  51 1.42
   9  0.063  0.499  0.500-  42 1.45  10 1.46  12 1.47
  10  0.118  0.396  0.500-  53 1.37   6 1.45   9 1.46
  11  0.058  0.699  0.500-  46 1.42  16 1.43  12 1.45
  12  0.118  0.601  0.500-  54 1.38  11 1.45   9 1.47
  13  0.277  0.704  0.500-  54 1.37  14 1.41  25 1.43
  14  0.222  0.802  0.500-  16 1.41  13 1.41  17 1.42
  15  0.056  0.900  0.500-  50 1.41  16 1.43   3 1.43
  16  0.111  0.800  0.500-  14 1.41  15 1.43  11 1.43
  17  0.278  0.900  0.500-  28 1.41   1 1.42  14 1.42
  18  0.556  0.999  0.500-  20 1.41  30 1.42  21 1.42
  19  0.389  0.097  0.500-   4 1.41  20 1.42  23 1.42
  20  0.445  0.999  0.500-  18 1.41  28 1.42  19 1.42
  21  0.612  0.097  0.500-  22 1.41  32 1.41  18 1.42
  22  0.557  0.196  0.500-  55 1.37  21 1.41  23 1.44
  23  0.444  0.197  0.500-  51 1.42  19 1.42  22 1.44
  24  0.555  0.606  0.500-  56 1.38  26 1.42  52 1.43  58 2.59
  25  0.390  0.702  0.500-  52 1.42  29 1.42  13 1.43
  26  0.612  0.704  0.500-  44 1.42  27 1.42  24 1.42
  27  0.556  0.802  0.500-  29 1.41  26 1.42  30 1.42
  28  0.389  0.900  0.500-  17 1.41  20 1.42  29 1.42
  29  0.444  0.801  0.500-  27 1.41  28 1.42  25 1.42
  30  0.612  0.900  0.500-  48 1.41  18 1.42  27 1.42
  31  0.889  1.000  0.500-  33 1.41  34 1.43  50 1.43
  32  0.723  0.099  0.500-  21 1.41  33 1.43  37 1.43
  33  0.778  0.999  0.500-  31 1.41  32 1.43  48 1.43
  34  0.943  0.100  0.500-   2 1.41  31 1.43  35 1.44
  35  0.888  0.201  0.500-  37 1.42  38 1.44  34 1.44
  36  0.716  0.298  0.500-  55 1.37  37 1.45  41 1.47
  37  0.776  0.200  0.500-  35 1.42  32 1.43  36 1.45
  38  0.943  0.301  0.500-   6 1.43  35 1.44  39 1.44
  39  0.886  0.400  0.500-  38 1.44  41 1.45  42 1.46
  40  0.717  0.503  0.500-  56 1.36  45 1.44  41 1.46
  41  0.772  0.401  0.500-  39 1.45  40 1.46  36 1.47
  42  0.948  0.499  0.500-  43 1.44   9 1.45  39 1.46
  43  0.891  0.599  0.500-  45 1.43  46 1.44  42 1.44
  44  0.724  0.701  0.500-  26 1.42  49 1.43  45 1.44
  45  0.778  0.600  0.500-  43 1.43  44 1.44  40 1.44
  46  0.946  0.699  0.500-  11 1.42  43 1.44  47 1.44
  47  0.891  0.799  0.500-  49 1.41  50 1.43  46 1.44
  48  0.723  0.900  0.500-  30 1.41  33 1.43  49 1.43
  49  0.779  0.800  0.500-  47 1.41  44 1.43  48 1.43
  50  0.945  0.900  0.500-  15 1.41  47 1.43  31 1.43
  51  0.390  0.296  0.500-  23 1.42   8 1.42  58 1.92  57 2.55
  52  0.442  0.601  0.500-  25 1.42  24 1.43  57 1.90  58 2.47
  53  0.226  0.390  0.500-  10 1.37   8 1.38  57 1.92
  54  0.227  0.607  0.500-  13 1.37  12 1.38  57 2.00
  55  0.607  0.292  0.500-  22 1.37  36 1.37  58 2.08
  56  0.609  0.510  0.500-  40 1.36  24 1.38  58 1.96
  57  0.338  0.492  0.500-  52 1.90  53 1.92  54 2.00  58 2.19  51 2.55
  58  0.491  0.410  0.501-  51 1.92  56 1.96  55 2.08  57 2.19  52 2.47  24 2.59

  LATTYP: Found a triclinic cell.
 ALAT       =    34.4741461717
 B/A-ratio  =     0.3636928363
 C/A-ratio  =     0.5808613765
 COS(alpha) =     0.0000802851
 COS(beta)  =     0.5811638476
 COS(gamma) =     0.7263586443

  Lattice vectors:

 A1 = (  12.5934643286, -25.0775393611, -20.0246955050)
 A2 = (  -0.0366757521, -12.5379463585,   0.0000000000)
 A3 = (   0.0133158327,  -0.0016466440, -20.0246955050)

Analysis of symmetry for initial positions (statically):
 Subroutine PRICEL returns:
 Original cell was already a primitive cell.

 Routine SETGRP: Setting up the symmetry group for a
 triclinic supercell.

 Subroutine GETGRP returns: Found  1 space group operations
 (whereof  1 operations were pure point group operations)
 out of a pool of  2 trial point group operations.

The static configuration has the point symmetry C_1 .

Analysis of symmetry for dynamics (positions and initial velocities):
 Subroutine PRICEL returns:
 Original cell was already a primitive cell.

[...]

The dynamic configuration has the point symmetry C_1 .

Analysis of structural, dynamic, and magnetic symmetry:
 Subroutine PRICEL returns:
 Original cell was already a primitive cell.

 Routine SETGRP: Setting up the symmetry group for a
 triclinic supercell.

 Subroutine GETGRP returns: Found  1 space group operations
 (whereof  1 operations were pure point group operations)
 out of a pool of  2 trial point group operations.

The magnetic configuration has the point symmetry C_1 .

 Subroutine INISYM returns: Found  1 space group operations
 (whereof  1 operations are pure point group operations),
 and found     1 'primitive' translations

 KPOINTS: KPOINTS created by Atomic Simulation Env

Automatic generation of k-mesh.
Space group operators:
 irot       det(A)        alpha          n_x          n_y          n_z        tau_x        tau_y        tau_z
    1     1.000000     0.000000     1.000000     0.000000     0.000000     0.000000     0.000000     0.000000

 Subroutine IBZKPT returns following result:

 Found      2 irreducible k-points:

 Following reciprocal coordinates:
            Coordinates               Weight
  0.250000  0.250000 -0.000000      2.000000
 -0.250000  0.250000 -0.000000      2.000000

 Following cartesian coordinates:
            Coordinates               Weight
  0.019757  0.019882  0.000012      2.000000
 -0.019757  0.019997 -0.000015      2.000000

 Subroutine IBZKPT_HF returns following result:

 Found      4 k-points in 1st BZ
 the following      4 k-points will be used (e.g. in the exchange kernel)
 Following reciprocal coordinates:   # in IRBZ
  0.250000  0.250000 -0.000000    0.25000000   1 t-inv F
 -0.250000  0.250000 -0.000000    0.25000000   2 t-inv F
 -0.250000 -0.250000  0.000000    0.25000000   1 t-inv T
  0.250000 -0.250000  0.000000    0.25000000   2 t-inv T

 SYSTEM =  unknown system
 POSCAR =   C  N Co Fe

 Startparameter for this run:
   NWRITE =      2    write-flag & timer
   PREC   = accura    normal or accurate (medium, high low for compatibility)
   ISTART =      1    job   : 0-new  1-cont  2-samecut
   ICHARG =      0    charge: 1-file 2-atom 10-const
   ISPIN  =      2    spin polarized calculation?
   LNONCOLLINEAR =      F non collinear calculations
   LSORBIT =      F    spin-orbit coupling
   INIWAV =      1    electr: 0-lowe 1-rand  2-diag
   LASPH  =      T    aspherical Exc in radial PAW
   METAGGA=      F    non-selfconsistent MetaGGA calc.

 Electronic Relaxation 1
   ENCUT  =  500.0 eV  36.75 Ry    6.06 a.u.  23.07 22.86 36.51*2*pi/ulx,y,z
   ENINI  =  500.0     initial cutoff
   ENAUG  =  644.9 eV  augmentation charge cutoff
   NELM   =    250;   NELMIN=  2; NELMDL=  0     # of ELM steps
   EDIFF  = 0.1E-03   stopping-criterion for ELM
   LREAL  =      F    real-space projection
   NLSPLINE    = F    spline interpolate recip. space projectors
   LCOMPAT=      F    compatible to vasp.4.4
   GGA_COMPAT  = T    GGA compatible to vasp.4.4-vasp.4.6
   LMAXPAW     = -100 max onsite density
   LMAXMIX     =    2 max onsite mixed and CHGCAR
   VOSKOWN=      0    Vosko Wilk Nusair interpolation
   ROPT   =    0.00000   0.00000   0.00000   0.00000
 Ionic relaxation
   EDIFFG = -.3E-01   stopping-criterion for IOM
   NSW    =      0    number of steps for IOM
   NBLOCK =      1;   KBLOCK =      1    inner block; outer block
   IBRION =     -1    ionic relax: 0-MD 1-quasi-New 2-CG
   NFREE  =      1    steps in history (QN), initial steepest desc. (CG)
   ISIF   =      2    stress and relaxation
   IWAVPR =     10    prediction:  0-non 1-charg 2-wave 3-comb
   ISYM   =      3    0-nonsym 1-usesym 2-fastsym
   LCORR  =      T    Harris-Foulkes like correction to forces

   POTIM  = 0.5000    time-step for ionic-motion
   TEIN   =    0.0    initial temperature
   TEBEG  =    0.0;   TEEND  =   0.0 temperature during run
   SMASS  =  -3.00    Nose mass-parameter (am)
   estimated Nose-frequenzy (Omega)   =  0.10E-29 period in steps =****** mass=  -0.366E-26a.u.
   SCALEE = 1.0000    scale energy and forces
   NPACO  =    256;   APACO  = 16.0  distance and # of slots for P.C.
   PSTRESS=    0.0 pullay stress

  Mass of Ions in am
   POMASS =  12.01 14.00 58.93 55.85
  Ionic Valenz
   ZVAL   =   4.00  5.00  9.00  8.00
  Atomic Wigner-Seitz radii
  virtual crystal weights
   VCA    =   1.00  1.00  1.00  1.00
   NELECT =     245.0000    total number of electrons
   NUPDOWN=      -1.0000    fix difference up-down

 DOS related values:
   EMIN   =  10.00;   EMAX   =-10.00  energy-range for DOS
   EFERMI =   0.00
   ISMEAR =     0;   SIGMA  =   0.10  broadening in eV -4-tet -1-fermi 0-gaus

 Electronic relaxation 2 (details)
   IALGO  =     53    algorithm
   LDIAG  =      T    sub-space diagonalisation (order eigenvalues)
   LSUBROT=      F    optimize rotation matrix (better conditioning)
   TURBO    =      0    0=normal 1=particle mesh
   IRESTART =      0    0=no restart 2=restart with 2 vectors
   NREBOOT  =      0    no. of reboots
   NMIN     =      0    reboot dimension
   EREF     =   0.00    reference energy to select bands
   IMIX   =      4    mixing-type and parameters
     AMIX     =   0.40;   BMIX     =  1.00
     AMIX_MAG =   1.60;   BMIX_MAG =  1.00
     AMIN     =   0.10
     WC   =   100.;   INIMIX=   1;  MIXPRE=   1;  MAXMIX= -45

 Intra band minimization:
[...]
   33        0.869   1.785   0.000   2.655
   34        0.867   1.769   0.000   2.635
   35        0.863   1.760   0.000   2.623
   36        0.853   1.695   0.000   2.548
   37        0.864   1.765   0.000   2.629
   38        0.861   1.751   0.000   2.612
   39        0.852   1.724   0.000   2.576
   40        0.854   1.713   0.000   2.567
   41        0.845   1.730   0.000   2.575
   42        0.853   1.721   0.000   2.574
   43        0.861   1.754   0.000   2.615
   44        0.868   1.769   0.000   2.637
   45        0.863   1.760   0.000   2.623
   46        0.864   1.761   0.000   2.624
   47        0.866   1.768   0.000   2.634
   48        0.868   1.776   0.000   2.644
   49        0.867   1.781   0.000   2.648
   50        0.869   1.775   0.000   2.644
   51        0.862   1.706   0.000   2.567
   52        0.862   1.686   0.000   2.549
   53        1.231   2.694   0.000   3.925
   54        1.235   2.654   0.000   3.890
   55        1.239   2.658   0.000   3.897
   56        1.234   2.702   0.000   3.936
   57        0.488   0.552   7.274   8.314
   58        0.481   0.540   6.076   7.097
tot         50.941 103.475  13.349 167.766

 magnetization (x)

[...]

  FORCE on cell =-STRESS in cart. coord.  units (eV):
  Direction    XX          YY          ZZ          XY          YZ          ZX
  Alpha Z    99.29576    99.29576    99.29576
  Ewald   48571.74426 48352.40899-57123.48517    10.86383    -0.17501     0.55158
  Hartree 47875.31266 47826.55926-47296.31181     5.39974    -0.42729     0.33678
  E(xc)    -717.46194  -717.73369  -731.23553    -0.02160     0.00192    -0.00513
  Local  -99158.44917-98927.32245101201.52468   -15.03629     0.76817    -0.78308
  n-local  -127.18034  -129.14970  -116.68718     1.65571    -0.07627    -0.05301
  augment   163.81675   169.34913   173.56431    -4.03297    -0.06942    -0.03321
  Kinetic  3609.99717  3623.00473  4107.68063     0.29973    -0.03475     0.04149
  Fock     -338.14505  -341.04809  -314.70266     1.97179     0.00742    -0.04421
  Total     -21.06991   -44.63606    -0.35697     1.09996    -0.00523     0.01121
  in kB     -10.62601   -22.51093    -0.18003     0.55473    -0.00264     0.00566

 VOLUME and BASIS-vectors are now :
  energy-cutoff  :      500.00
  volume of cell :     3176.90
      direct lattice vectors                 reciprocal lattice vectors
    12.653500000  0.000000000  0.000000000     0.079029518 -0.000231176  0.000052571
     0.036675752 12.537946359  0.000000000     0.000000000  0.079757878 -0.000006559
    -0.013315833  0.001646644 20.024695505     0.000000000  0.000000000  0.049938337

  length of vectors
    12.653500000 12.538000000 20.024700000     0.079029873  0.079757879  0.049938337

 FORCES acting on ions:
    Electron-Ion                     Ewald-Force                    Non-Local-Force
   0.244E+01 -.268E+00 0.340E+00   -.244E+01 0.205E+00 -.341E+00   -.139E+00 0.381E-01 0.197E-02
   0.188E+01 0.187E+01 0.303E+00   -.186E+01 -.188E+01 -.304E+00   0.427E-01 0.841E-01 0.969E-03
   0.965E+01 -.104E+01 0.200E+00   -.950E+01 0.116E+01 -.199E+00   -.241E-01 -.920E-01 -.130E-02
   0.502E+01 0.555E+01 0.323E+00   -.468E+01 -.554E+01 -.321E+00   -.294E+00 0.696E-01 -.277E-03
   0.625E+01 0.143E+02 0.238E+00   -.606E+01 -.145E+02 -.241E+00   -.180E+00 0.730E-01 0.352E-02
   0.160E+02 -.160E+01 0.289E+00   -.164E+02 0.180E+01 -.289E+00   0.326E+00 -.994E-01 0.147E-02
   0.166E+02 0.340E+01 0.332E+00   -.168E+02 -.354E+01 -.332E+00   0.180E+00 0.263E-01 0.490E-03
   -.531E+01 0.411E+02 -.507E+00   0.869E+01 -.439E+02 0.512E+00   -.301E+01 0.290E+01 -.436E-02
   0.139E+02 -.168E+01 0.872E-01   -.139E+02 0.127E+01 -.865E-01   0.138E+00 0.156E+00 0.357E-03
   0.518E+02 -.104E+02 -.150E-01   -.551E+02 0.111E+02 0.103E-01   0.319E+01 -.410E+00 0.569E-02
   0.125E+02 0.277E+01 0.149E+00   -.129E+02 -.264E+01 -.149E+00   0.358E+00 0.629E-01 0.194E-03
   0.494E+02 0.126E+02 0.117E+00   -.527E+02 -.133E+02 -.112E+00   0.355E+01 0.455E+00 -.379E-02
   -.839E+01 -.390E+02 0.158E+00   0.107E+02 0.419E+02 -.162E+00   -.228E+01 -.279E+01 0.197E-02
   0.267E+01 -.159E+02 0.144E+00   -.238E+01 0.162E+02 -.144E+00   -.194E+00 -.385E+00 -.343E-03
   -.321E+00 -.166E+01 0.852E-01   0.239E+00 0.186E+01 -.857E-01   -.456E-02 -.192E+00 -.391E-03
   0.166E+02 -.538E+01 0.104E+00   -.167E+02 0.545E+01 -.105E+00   0.115E+00 -.133E+00 0.939E-04
   0.490E+01 -.327E+01 0.273E+00   -.457E+01 0.342E+01 -.271E+00   -.214E+00 -.162E+00 -.179E-02
   -.556E+01 0.904E+00 0.570E+00   0.524E+01 -.111E+01 -.569E+00   0.202E+00 0.137E+00 0.293E-03
   -.230E+01 0.473E+01 0.297E+00   0.252E+01 -.459E+01 -.299E+00   -.246E+00 -.127E+00 0.173E-02
   0.183E+01 0.103E+01 0.512E+00   -.179E+01 -.978E+00 -.512E+00   0.833E-01 -.457E-02 0.947E-03
   -.224E+01 0.126E+02 0.513E+00   0.188E+01 -.129E+02 -.517E+00   0.225E+00 0.446E+00 0.569E-02
   0.106E+02 0.290E+02 0.381E-01   -.127E+02 -.321E+02 -.447E-01   0.211E+01 0.283E+01 0.611E-02
   0.214E+01 0.122E+02 -.160E+00   -.303E+01 -.109E+02 0.164E+00   0.927E+00 -.100E+01 -.245E-02
   0.515E+01 -.348E+02 -.499E-01   -.872E+01 0.379E+02 0.419E-01   0.315E+01 -.317E+01 0.642E-02
   -.104E+02 -.188E+02 0.258E-02   0.112E+02 0.175E+02 -.203E-02   -.990E+00 0.126E+01 0.149E-04
   -.745E+01 -.120E+02 0.238E+00   0.732E+01 0.123E+02 -.240E+00   0.211E+00 -.159E+00 0.203E-02
   -.642E+01 -.598E+01 0.416E+00   0.610E+01 0.599E+01 -.415E+00   0.308E+00 -.148E+00 0.121E-02
   -.309E+01 -.282E+01 0.464E+00   0.308E+01 0.272E+01 -.465E+00   -.118E+00 0.586E-01 0.183E-02
   -.264E+00 -.661E+01 0.342E+00   -.952E-01 0.633E+01 -.342E+00   0.303E+00 0.281E+00 0.202E-03
   -.321E+01 -.629E+00 0.518E+00   0.317E+01 0.780E+00 -.520E+00   0.172E+00 -.552E-01 0.151E-02
   -.755E+01 -.467E-02 0.140E+00   0.746E+01 0.133E+00 -.140E+00   -.254E-01 -.157E-01 -.111E-02
   -.150E+02 0.309E+01 0.314E+00   0.151E+02 -.316E+01 -.312E+00   -.107E+00 0.126E+00 -.135E-02
   0.138E+01 0.813E+00 0.274E+00   -.127E+01 -.101E+01 -.275E+00   -.197E-02 0.201E+00 0.429E-03
   0.776E+01 -.272E+01 0.260E+00   -.774E+01 0.285E+01 -.261E+00   -.508E-01 -.111E+00 0.392E-03
   -.518E+01 -.365E+01 0.318E+00   0.545E+01 0.384E+01 -.319E+00   -.283E+00 -.236E+00 0.136E-02
   -.425E+02 -.160E+02 -.798E-01   0.458E+02 0.166E+02 0.738E-01   -.344E+01 -.457E+00 0.796E-02
   -.946E+01 -.453E+01 0.236E+00   0.988E+01 0.448E+01 -.238E+00   -.376E+00 -.780E-01 0.122E-02
   0.738E+01 -.429E+01 0.295E+00   -.750E+01 0.478E+01 -.294E+00   0.171E+00 -.364E+00 0.538E-03
   0.154E+01 -.422E+01 0.132E+00   -.149E+01 0.456E+01 -.131E+00   0.240E+00 -.161E+00 -.349E-03
   -.466E+02 0.161E+02 -.118E+00   0.505E+02 -.167E+02 0.115E+00   -.339E+01 0.427E+00 0.256E-02
   -.755E+01 0.291E+01 -.130E+00   0.755E+01 -.251E+01 0.133E+00   -.218E+00 -.108E+00 -.185E-02
   0.228E+01 0.498E+01 0.191E+00   -.224E+01 -.531E+01 -.190E+00   -.347E+00 0.168E+00 0.195E-03
   -.491E+01 0.548E+01 0.253E+00   0.510E+01 -.598E+01 -.253E+00   -.236E+00 0.346E+00 0.169E-02
   -.151E+02 -.263E+01 0.258E+00   0.152E+02 0.278E+01 -.257E+00   -.154E+00 -.134E-01 0.454E-04
   -.140E+02 0.254E+01 0.161E+00   0.145E+02 -.279E+01 -.162E+00   -.419E+00 0.566E-01 0.706E-03
   0.705E+01 0.255E+01 0.201E+00   -.726E+01 -.275E+01 -.201E+00   0.278E+00 0.226E+00 0.668E-03
   -.610E+01 0.238E+01 0.152E+00   0.611E+01 -.248E+01 -.151E+00   0.362E-01 0.121E+00 -.883E-03
   -.926E+01 0.280E+00 0.350E+00   0.911E+01 -.430E+00 -.349E+00   0.432E-01 0.749E-01 -.862E-03
   -.123E+01 -.143E+01 0.301E+00   0.120E+01 0.146E+01 -.302E+00   -.614E-01 -.913E-01 0.121E-02
   0.863E+01 -.572E+00 0.741E-01   -.853E+01 0.415E+00 -.747E-01   0.342E-02 0.188E-01 -.543E-03
   -.144E+02 -.490E+01 -.110E+01   0.165E+02 0.936E+01 0.113E+01   -.313E+01 -.483E+01 -.305E-01
   -.909E+01 -.713E+00 -.305E+00   0.581E+01 -.452E+01 0.295E+00   0.411E+01 0.567E+01 0.525E-02
   0.280E+02 -.211E+02 -.129E+01   -.174E+02 0.378E+02 0.138E+01   -.102E+02 -.159E+02 -.878E-01
   0.177E+02 0.295E+02 0.386E+00   -.594E+01 -.477E+02 -.388E+00   -.111E+02 0.172E+02 0.406E-02
   0.370E+00 -.491E+02 -.896E+00   -.126E+02 0.684E+02 0.971E+00   0.117E+02 -.181E+02 -.737E-01
   -.155E+02 0.425E+02 -.251E+00   0.484E+01 -.597E+02 0.269E+00   0.986E+01 0.161E+02 -.168E-01
   0.120E+02 -.381E+01 -.378E+00   -.146E+02 0.696E+01 0.385E+00   -.328E+00 -.287E+01 -.214E-01
   -.474E+02 0.260E+02 -.598E+01   0.486E+02 -.291E+02 0.589E+01   0.183E+01 0.296E+01 0.102E+00
   -.251E+01 -.281E+00 0.854E-01   -.227E-12 -.242E-12 0.622E-14   0.234E+01 0.336E+00 -.772E-01

 POSITION                                       TOTAL-FORCE (eV/Angst)
      2.83879     12.52369     10.01166        -0.146307     -0.023285      0.000656
      0.68859      1.24228     10.01176         0.061427      0.077828      0.000349
      1.42587     12.53096     10.01184         0.136566      0.023053     -0.000387
      3.50861      1.21927     10.01230         0.027532      0.079347      0.000949
      2.80299      2.45031     10.01326         0.000469     -0.068782      0.000784
      0.71629      3.75091     10.01268        -0.081559      0.095241      0.001610
      1.39068      2.48346     10.01232         0.048991     -0.115186      0.001424
      3.51912      3.67251     10.01642         0.213301      0.223038      0.000337
      0.80365      6.25245     10.01329         0.201639     -0.252627      0.000996
      1.49637      4.96978     10.01432         0.017826      0.229708      0.001380
      0.75772      8.76779     10.01239        -0.051736      0.196940     -0.000040
      1.51479      7.53576     10.01299         0.487268     -0.227571      0.000789
      3.52101      8.82200     10.01288        -0.055062      0.003673     -0.001205
      2.83432     10.05271     10.01228         0.087644     -0.082978     -0.000790
      0.73085     11.28153     10.01210        -0.099870     -0.005946     -0.000998
      1.42657     10.03370     10.01227         0.014226     -0.064151     -0.000444
      3.53941     11.29079     10.01169         0.108575     -0.015715      0.000046
      7.06746     12.52078     10.01095        -0.114067     -0.066025      0.000959
      4.92180      1.22136     10.01260        -0.040306      0.002814     -0.000087
      5.65637     12.52015     10.01124         0.136588      0.049157      0.000923
      7.73574      1.22090     10.01186        -0.114901      0.170915      0.002643
      7.05176      2.45261     10.01449         0.125160     -0.136144     -0.000142
      5.61549      2.46553     10.01517         0.086661      0.199860      0.001114
      7.04289      7.59954     10.01472        -0.247419     -0.292825     -0.001274
      4.95253      8.80357     10.01347        -0.177553     -0.049772      0.000545
      7.76030      8.82265     10.01264         0.082825      0.158056     -0.000139
      7.06006     10.05509     10.01152        -0.006832     -0.152519      0.001319
      4.95080     11.28744     10.01123        -0.145054     -0.033401      0.001186
      5.64697     10.04627     10.01185        -0.034670      0.012216      0.001187
      7.76627     11.28696     10.01086         0.143349      0.093142      0.000553
     11.28149     12.53341     10.01182        -0.132396      0.113259     -0.001041
      9.14464      1.24154     10.01189        -0.004558      0.062205      0.000231
      9.87520     12.53060     10.01151         0.124016      0.017680     -0.000474
     11.92989      1.25438     10.01173        -0.020619      0.018135      0.000111
     11.23675      2.51561     10.01198        -0.041526     -0.058089      0.000807
      9.05811      3.74047     10.01461        -0.319911      0.057822      0.002365
      9.81585      2.50688     10.01260         0.031331     -0.128034      0.000172
     11.94139      3.77030     10.01233         0.058986      0.102792      0.001283
     11.22415      5.02134     10.01303         0.310002      0.166444      0.000453
      9.08484      6.30975     10.01461         0.226047     -0.120328     -0.001232
      9.77134      5.02315     10.01432        -0.226342      0.289783      0.000392
     12.00508      6.25466     10.01274        -0.329639     -0.146725      0.000996
     11.28829      7.50737     10.01237        -0.057685     -0.138138      0.001559
      9.17578      8.78937     10.01224        -0.056785      0.143646      0.000829
      9.86133      7.52831     10.01293         0.022237     -0.193385      0.000300
     11.99015      8.76059     10.01212         0.090652      0.033962      0.000597
     11.29311     10.01954     10.01193         0.036981      0.037273     -0.000396
      9.17989     11.28085     10.01120        -0.114009     -0.070098      0.000117
      9.87975     10.03181     10.01158        -0.081558     -0.068816      0.000608
     11.97799     11.27890     10.01203         0.111301     -0.139129     -0.001162
      4.93569      3.70853     10.01854        -1.176344     -0.631922     -0.006195
      5.61020      7.54204     10.01538         1.051157      0.742285     -0.004275
      2.86469      4.88868     10.01727        -0.427780     -0.520246      0.000078
      2.88896      7.60676     10.01309        -0.286025      0.368408      0.002475
      7.68545      3.66606     10.01693         0.427009     -0.394453     -0.005303
      7.72370      6.39967     10.01594         0.010851      0.326910     -0.000797
      4.28746      6.17197     10.01622        -2.118131      0.295343     -0.011928
      6.21753      5.14460     10.02405         2.228026     -0.194643      0.005184
    total drift:                               -0.003120     -0.001706      0.000485

  FREE ENERGIE OF THE ION-ELECTRON SYSTEM (eV)
  free  energy   TOTEN  =      -608.06614117 eV

  energy  without entropy=     -608.06594307  energy(sigma->0) =     -608.06604212

 stress matrix after NEB project (eV)
    -21.06991      1.09848      0.01121
      1.09996    -44.63606     -0.00536
      0.01135     -0.00523     -0.35697
  FORCES: max atom, RMS     2.236518    0.527040
  FORCE total and by dimension    4.013817    2.228026
  Stress total and by dimension   49.384850   44.636064
 writing wavefunctions

 total charge

[...]

 magnetization (x)

# of ion       s       p       d       tot
    1       -0.000  -0.005   0.000  -0.005
    2       -0.000  -0.000   0.000  -0.000
    3        0.000   0.004   0.000   0.004
    4        0.001   0.012   0.000   0.013
    5       -0.001  -0.005   0.000  -0.006
    6       -0.001  -0.005   0.000  -0.006
    7        0.000   0.006   0.000   0.007
    8        0.001   0.014   0.000   0.015
    9        0.000   0.008   0.000   0.008
   10       -0.000   0.013   0.000   0.013
   11       -0.000  -0.003   0.000  -0.003
   12        0.001   0.008   0.000   0.009
   13       -0.001  -0.007   0.000  -0.007
   14       -0.000   0.001   0.000   0.001
   15       -0.000  -0.001   0.000  -0.001
   16        0.000   0.002   0.000   0.002
   17        0.000   0.005   0.000   0.006
   18       -0.000  -0.005   0.000  -0.006
   19       -0.001  -0.006   0.000  -0.007
   20        0.000   0.005   0.000   0.006
   21        0.000   0.006   0.000   0.007
   22       -0.001  -0.013   0.000  -0.015
   23        0.002   0.020   0.000   0.022
   24        0.000   0.019   0.000   0.019
   25        0.002   0.009   0.000   0.010
   26       -0.001  -0.001   0.000  -0.002
   27        0.000   0.007   0.000   0.008
   28       -0.000  -0.003   0.000  -0.003
   29        0.000   0.005   0.000   0.005
   30       -0.000   0.000   0.000   0.000
   31       -0.000  -0.000   0.000  -0.001
   32       -0.000  -0.001   0.000  -0.001
   33        0.000   0.005   0.000   0.005
   34        0.000   0.006   0.000   0.006
   35       -0.000   0.001   0.000   0.001
   36        0.000  -0.001   0.000  -0.001
   37        0.001   0.003   0.000   0.004
   38        0.000   0.007   0.000   0.008
   39       -0.000  -0.002   0.000  -0.003
   40       -0.001  -0.002   0.000  -0.002
   41        0.002   0.026   0.000   0.027
   42        0.000   0.007   0.000   0.008
   43       -0.000  -0.002   0.000  -0.003
   44       -0.000   0.002   0.000   0.002
   45        0.000   0.002   0.000   0.002
   46        0.001   0.008   0.000   0.008
   47       -0.000  -0.000   0.000  -0.000
   48       -0.000   0.001   0.000   0.001
   49        0.000   0.005   0.000   0.005
   50        0.000   0.004   0.000   0.005
   51       -0.014  -0.070   0.000  -0.084
   52       -0.001  -0.025   0.000  -0.026
   53       -0.002   0.004   0.000   0.002
   54       -0.001  -0.009   0.000  -0.010
   55        0.007   0.035   0.000   0.042
   56        0.002   0.032   0.000   0.034
   57        0.003   0.014   1.411   1.428
   58        0.067   0.021   3.104   3.192
tot          0.065   0.162   4.514   4.742