 vasp.5.4.4.18Apr17-6-g9f103f2a35 (build Feb 25 2019 10:51:38) complex

 executed on             LinuxIFC date 2021.03.06  04:00:37

 INCAR:
 POTCAR:    PAW_PBE C 08Apr2002
 POTCAR:    PAW_PBE N 08Apr2002
 POTCAR:    PAW_PBE Ni 02Aug2007
 POTCAR:    PAW_PBE Fe 06Sep2000

 POTCAR:    PAW_PBE C 08Apr2002
   VRHFIN =C: s2p2

   TITEL  = PAW_PBE C 08Apr2002
   POMASS =   12.011; ZVAL   =    4.000    mass and valenz
   ENMAX  =  400.000; ENMIN  =  300.000 eV

 POTCAR:    PAW_PBE N 08Apr2002
   VRHFIN =N: s2p3

   TITEL  = PAW_PBE N 08Apr2002
   POMASS =   14.001; ZVAL   =    5.000    mass and valenz
   ENMAX  =  400.000; ENMIN  =  300.000 eV

 POTCAR:    PAW_PBE Ni 02Aug2007
   VRHFIN =Ni:

   TITEL  = PAW_PBE Ni 02Aug2007
   POMASS =   58.690; ZVAL   =   10.000    mass and valenz
   ENMAX  =  269.532; ENMIN  =  202.149 eV

 POTCAR:    PAW_PBE Fe 06Sep2000
   VRHFIN =Fe:  d7 s1

   TITEL  = PAW_PBE Fe 06Sep2000
   POMASS =   55.847; ZVAL   =    8.000    mass and valenz
   ENMAX  =  267.882; ENMIN  =  200.911 eV

  PAW_PBE C 08Apr2002                   :
  PAW_PBE N 08Apr2002                   :
  PAW_PBE Ni 02Aug2007                  :
  PAW_PBE Fe 06Sep2000                  :

 POSCAR:  C  N Ni Fe
  positions in cartesian coordinates
 exchange correlation table for  LEXCH =        8
   RHO(1)=    0.500       N(1)  =     2000
   RHO(2)=  100.500       N(2)  =     4000

 VTST: version 3.2, (02/03/18)

 CHAIN: initializing optimizer

 OPT: Using VASP Conjugate-Gradient optimizer
 CHAIN: Read ICHAIN            0

 POSCAR:  C  N Ni Fe
  positions in cartesian coordinates

 ion  position               nearest neighbor table
   1  0.222  0.999  0.500-   3 1.41   4 1.41  17 1.42
   2  0.055  0.100  0.500-  34 1.42   7 1.43   3 1.43
   3  0.110  1.000  0.500-   1 1.41  15 1.43   2 1.43
   4  0.277  0.097  0.500-  19 1.41   1 1.41   5 1.42
   5  0.223  0.196  0.500-   7 1.42   4 1.42   8 1.42
   6  0.058  0.300  0.500-   7 1.44  38 1.44  10 1.45
   7  0.111  0.199  0.500-   5 1.42   2 1.43   6 1.44
   8  0.282  0.292  0.500-  51 1.37  53 1.38   5 1.42
   9  0.064  0.498  0.500-  10 1.45  12 1.46  42 1.47
  10  0.121  0.397  0.500-  51 1.41   6 1.45   9 1.45
  11  0.058  0.699  0.500-  46 1.42  16 1.43  12 1.45
  12  0.119  0.601  0.500-  52 1.37  11 1.45   9 1.46
  13  0.278  0.703  0.500-  52 1.37  14 1.41  25 1.43
  14  0.223  0.802  0.500-  13 1.41  16 1.41  17 1.42
  15  0.056  0.900  0.500-  50 1.41  16 1.43   3 1.43
  16  0.111  0.800  0.500-  14 1.41  15 1.43  11 1.43
  17  0.278  0.900  0.500-  28 1.41  14 1.42   1 1.42
  18  0.556  0.998  0.500-  20 1.41  21 1.42  30 1.42
  19  0.389  0.096  0.500-  23 1.41   4 1.41  20 1.42
  20  0.445  0.998  0.500-  18 1.41  19 1.42  28 1.42
  21  0.611  0.097  0.500-  22 1.41  32 1.42  18 1.42
  22  0.556  0.195  0.500-  54 1.38  21 1.41  23 1.42
  23  0.443  0.194  0.500-  53 1.38  19 1.41  22 1.42
  24  0.552  0.607  0.500-  55 1.37  56 1.38  26 1.42
  25  0.390  0.704  0.500-  56 1.39  29 1.41  13 1.43
  26  0.611  0.703  0.500-  27 1.42  44 1.42  24 1.42
  27  0.556  0.802  0.500-  29 1.41  26 1.42  30 1.42
  28  0.389  0.900  0.500-  17 1.41  29 1.42  20 1.42
  29  0.445  0.802  0.500-  25 1.41  27 1.41  28 1.42
  30  0.612  0.900  0.500-  48 1.41  27 1.42  18 1.42
  31  0.889  1.000  0.500-  33 1.41  34 1.44  50 1.44
  32  0.723  0.099  0.500-  21 1.42  33 1.43  37 1.44
  33  0.778  1.000  0.500-  31 1.41  32 1.43  48 1.43
  34  0.943  0.101  0.500-   2 1.42  31 1.44  35 1.44
  35  0.888  0.201  0.500-  37 1.43  34 1.44  38 1.44
  36  0.715  0.299  0.500-  54 1.38  37 1.45  41 1.46
  37  0.775  0.200  0.500-  35 1.43  32 1.44  36 1.45
  38  0.944  0.302  0.500-  39 1.44   6 1.44  35 1.44
  39  0.886  0.401  0.500-  38 1.44  42 1.45  41 1.47
  40  0.714  0.503  0.500-  55 1.41  45 1.44  41 1.45
  41  0.770  0.401  0.500-  40 1.45  36 1.46  39 1.47
  42  0.948  0.498  0.500-  43 1.44  39 1.45   9 1.47
  43  0.890  0.598  0.500-  45 1.44  46 1.44  42 1.44
  44  0.723  0.700  0.500-  26 1.42  49 1.43  45 1.44
  45  0.776  0.599  0.500-  44 1.44  43 1.44  40 1.44
  46  0.946  0.698  0.500-  11 1.42  47 1.44  43 1.44
  47  0.890  0.799  0.500-  49 1.42  50 1.44  46 1.44
  48  0.723  0.899  0.500-  30 1.41  49 1.43  33 1.43
  49  0.778  0.799  0.500-  47 1.42  44 1.43  48 1.43
  50  0.944  0.899  0.500-  15 1.41  47 1.44  31 1.44
  51  0.232  0.390  0.500-   8 1.37  10 1.41  57 1.90
  52  0.227  0.607  0.500-  12 1.37  13 1.37  57 1.94
  53  0.390  0.291  0.501-   8 1.38  23 1.38  58 1.93
  54  0.606  0.292  0.500-  22 1.38  36 1.38  58 1.99
  55  0.603  0.510  0.501-  24 1.37  40 1.41  58 1.92
  56  0.443  0.606  0.500-  24 1.38  25 1.39  57 1.91
  57  0.337  0.499  0.500-  51 1.90  56 1.91  52 1.94  58 2.31
  58  0.494  0.404  0.501-  55 1.92  53 1.93  54 1.99  57 2.31

  LATTYP: Found a triclinic cell.
 ALAT       =    34.4743924350
 B/A-ratio  =     0.3636219627
 C/A-ratio  =     0.5806232879
 COS(alpha) =     0.0000626774
 COS(beta)  =     0.5808981133
 COS(gamma) =     0.7264536231

  Lattice vectors:

 A1 = (  12.6402789525, -25.0566027459, -20.0218315995)
 A2 = (  -0.0134536753, -12.5356390052,  -0.0006417368)
 A3 = (   0.0063068183,  -0.0002366492, -20.0166340882)

Analysis of symmetry for initial positions (statically):
 Subroutine PRICEL returns:
 Original cell was already a primitive cell.

 Routine SETGRP: Setting up the symmetry group for a
 triclinic supercell.

 Subroutine GETGRP returns: Found  1 space group operations
 (whereof  1 operations were pure point group operations)
 out of a pool of  2 trial point group operations.

The static configuration has the point symmetry C_1 .

Analysis of symmetry for dynamics (positions and initial velocities):
 Subroutine PRICEL returns:
 Original cell was already a primitive cell.

[...]

The dynamic configuration has the point symmetry C_1 .

Analysis of structural, dynamic, and magnetic symmetry:
 Subroutine PRICEL returns:
 Original cell was already a primitive cell.

 Routine SETGRP: Setting up the symmetry group for a
 triclinic supercell.

 Subroutine GETGRP returns: Found  1 space group operations
 (whereof  1 operations were pure point group operations)
 out of a pool of  2 trial point group operations.

The magnetic configuration has the point symmetry C_1 .

 Subroutine INISYM returns: Found  1 space group operations
 (whereof  1 operations are pure point group operations),
 and found     1 'primitive' translations

 KPOINTS: KPOINTS created by Atomic Simulation Env

Automatic generation of k-mesh.
Space group operators:
 irot       det(A)        alpha          n_x          n_y          n_z        tau_x        tau_y        tau_z
    1     1.000000     0.000000     1.000000     0.000000     0.000000     0.000000     0.000000     0.000000

 Subroutine IBZKPT returns following result:

 Found      2 irreducible k-points:

 Following reciprocal coordinates:
            Coordinates               Weight
  0.250000  0.250000  0.000000      2.000000
 -0.250000  0.250000  0.000000      2.000000

 Following cartesian coordinates:
            Coordinates               Weight
  0.019722  0.019922  0.000006      2.000000
 -0.019769  0.019964 -0.000006      2.000000

 Subroutine IBZKPT_HF returns following result:

 Found      4 k-points in 1st BZ
 the following      4 k-points will be used (e.g. in the exchange kernel)
 Following reciprocal coordinates:   # in IRBZ
  0.250000  0.250000  0.000000    0.25000000   1 t-inv F
 -0.250000  0.250000  0.000000    0.25000000   2 t-inv F
 -0.250000 -0.250000  0.000000    0.25000000   1 t-inv T
  0.250000 -0.250000 -0.000000    0.25000000   2 t-inv T

 SYSTEM =  unknown system
 POSCAR =   C  N Ni Fe

 Startparameter for this run:
   NWRITE =      2    write-flag & timer
   PREC   = accura    normal or accurate (medium, high low for compatibility)
   ISTART =      1    job   : 0-new  1-cont  2-samecut
   ICHARG =      0    charge: 1-file 2-atom 10-const
   ISPIN  =      2    spin polarized calculation?
   LNONCOLLINEAR =      F non collinear calculations
   LSORBIT =      F    spin-orbit coupling
   INIWAV =      1    electr: 0-lowe 1-rand  2-diag
   LASPH  =      T    aspherical Exc in radial PAW
   METAGGA=      F    non-selfconsistent MetaGGA calc.

 Electronic Relaxation 1
   ENCUT  =  500.0 eV  36.75 Ry    6.06 a.u.  23.08 22.86 36.49*2*pi/ulx,y,z
   ENINI  =  500.0     initial cutoff
   ENAUG  =  644.9 eV  augmentation charge cutoff
   NELM   =    250;   NELMIN=  2; NELMDL=  0     # of ELM steps
   EDIFF  = 0.1E-03   stopping-criterion for ELM
   LREAL  =      F    real-space projection
   NLSPLINE    = F    spline interpolate recip. space projectors
   LCOMPAT=      F    compatible to vasp.4.4
   GGA_COMPAT  = T    GGA compatible to vasp.4.4-vasp.4.6
   LMAXPAW     = -100 max onsite density
   LMAXMIX     =    2 max onsite mixed and CHGCAR
   VOSKOWN=      0    Vosko Wilk Nusair interpolation
   ROPT   =    0.00000   0.00000   0.00000   0.00000
 Ionic relaxation
   EDIFFG = -.3E-01   stopping-criterion for IOM
   NSW    =      0    number of steps for IOM
   NBLOCK =      1;   KBLOCK =      1    inner block; outer block
   IBRION =     -1    ionic relax: 0-MD 1-quasi-New 2-CG
   NFREE  =      1    steps in history (QN), initial steepest desc. (CG)
   ISIF   =      2    stress and relaxation
   IWAVPR =     10    prediction:  0-non 1-charg 2-wave 3-comb
   ISYM   =      3    0-nonsym 1-usesym 2-fastsym
   LCORR  =      T    Harris-Foulkes like correction to forces

   POTIM  = 0.5000    time-step for ionic-motion
   TEIN   =    0.0    initial temperature
   TEBEG  =    0.0;   TEEND  =   0.0 temperature during run
   SMASS  =  -3.00    Nose mass-parameter (am)
   estimated Nose-frequenzy (Omega)   =  0.10E-29 period in steps =****** mass=  -0.366E-26a.u.
   SCALEE = 1.0000    scale energy and forces
   NPACO  =    256;   APACO  = 16.0  distance and # of slots for P.C.
   PSTRESS=    0.0 pullay stress

  Mass of Ions in am
   POMASS =  12.01 14.00 58.69 55.85
  Ionic Valenz
   ZVAL   =   4.00  5.00 10.00  8.00
  Atomic Wigner-Seitz radii
  virtual crystal weights
   VCA    =   1.00  1.00  1.00  1.00
   NELECT =     248.0000    total number of electrons
   NUPDOWN=      -1.0000    fix difference up-down

 DOS related values:
   EMIN   =  10.00;   EMAX   =-10.00  energy-range for DOS
   EFERMI =   0.00
   ISMEAR =     0;   SIGMA  =   0.10  broadening in eV -4-tet -1-fermi 0-gaus

 Electronic relaxation 2 (details)
   IALGO  =     53    algorithm
   LDIAG  =      T    sub-space diagonalisation (order eigenvalues)
   LSUBROT=      F    optimize rotation matrix (better conditioning)
   TURBO    =      0    0=normal 1=particle mesh
   IRESTART =      0    0=no restart 2=restart with 2 vectors
   NREBOOT  =      0    no. of reboots
   NMIN     =      0    reboot dimension
   EREF     =   0.00    reference energy to select bands
   IMIX   =      4    mixing-type and parameters
     AMIX     =   0.40;   BMIX     =  1.00
     AMIX_MAG =   1.60;   BMIX_MAG =  1.00
     AMIN     =   0.10
     WC   =   100.;   INIMIX=   1;  MIXPRE=   1;  MAXMIX= -45

 Intra band minimization:
   WEIMIN = 0.0000     energy-eigenvalue tresh-hold
[...]
   35        0.861   1.750   0.000   2.611
   36        0.851   1.693   0.000   2.544
   37        0.862   1.758   0.000   2.620
   38        0.856   1.740   0.000   2.597
   39        0.851   1.712   0.000   2.563
   40        0.845   1.688   0.000   2.533
   41        0.842   1.722   0.000   2.564
   42        0.851   1.710   0.000   2.561
   43        0.857   1.742   0.000   2.599
   44        0.866   1.763   0.000   2.629
   45        0.858   1.752   0.000   2.611
   46        0.862   1.754   0.000   2.616
   47        0.865   1.763   0.000   2.628
   48        0.867   1.772   0.000   2.640
   49        0.866   1.774   0.000   2.641
   50        0.866   1.770   0.000   2.637
   51        1.225   2.657   0.000   3.882
   52        1.235   2.668   0.000   3.903
   53        1.226   2.700   0.000   3.926
   54        1.235   2.677   0.000   3.912
   55        1.226   2.693   0.000   3.919
   56        1.224   2.669   0.000   3.893
   57        0.468   0.523   8.466   9.457
   58        0.435   0.527   6.091   7.053
tot         51.438 105.192  14.557 171.187

 magnetization (x)

[...]

  FORCE on cell =-STRESS in cart. coord.  units (eV):
  Direction    XX          YY          ZZ          XY          YZ          ZX
  Alpha Z   100.97742   100.97742   100.97742
  Ewald   49672.43801 49535.16350-58483.50451     1.71589     4.37164   -31.43324
  Hartree 49091.29267 49098.45211-48395.47969     8.12657     5.01473   -29.09396
  E(xc)    -733.65901  -734.52989  -749.12647     0.11803    -0.09232     0.04876
  Local  ************************103574.47121   -13.73417   -10.77468    61.13566
  n-local  -129.72378  -133.14427  -123.87674    -2.68710     0.60218    -0.23288
  augment   179.69750   184.47104   205.38211    -2.96170     0.66783    -0.36302
  Kinetic  3653.31985  3690.08240  4216.64404     5.26378     0.62341    -0.33497
  Fock     -360.51697  -364.46127  -345.92952     3.07589    -0.49067     0.30526
  Total     -38.65821   -43.09915    -0.44215    -1.08281    -0.07787     0.03161
  in kB     -19.49627   -21.73594    -0.22299    -0.54609    -0.03927     0.01594

 VOLUME and BASIS-vectors are now :
  energy-cutoff  :      500.00
  volume of cell :     3176.88
      direct lattice vectors                 reciprocal lattice vectors
    12.660879485  0.014911914 -0.003914038     0.078983562 -0.000084769  0.000024887
     0.013453675 12.535639005  0.000641737    -0.000093956  0.079772660 -0.000000973
    -0.006306818  0.000236649 20.016634088     0.000015447 -0.000002574  0.049958454

  length of vectors
    12.660888871 12.535646241 20.016635083     0.078983612  0.079772715  0.049958457

 FORCES acting on ions:
    Electron-Ion                     Ewald-Force                    Non-Local-Force
   0.776E+01 0.275E+01 0.621E+00   -.785E+01 -.294E+01 -.625E+00   0.137E+00 0.321E+00 0.735E-02
   0.611E+01 0.101E+01 0.389E+00   -.625E+01 -.110E+01 -.390E+00   0.178E+00 0.679E-01 0.655E-03
   0.148E+02 -.477E+00 0.301E+00   -.149E+02 0.538E+00 -.298E+00   0.109E+00 -.733E-02 -.343E-02
   0.121E+02 0.121E+02 0.266E+00   -.124E+02 -.126E+02 -.256E+00   0.117E+00 0.384E+00 -.428E-02
   0.211E+02 0.189E+02 -.243E-01   -.218E+02 -.197E+02 0.232E-01   0.633E+00 0.707E+00 0.209E-02
   0.241E+02 -.110E+01 0.347E+00   -.245E+02 0.150E+01 -.348E+00   0.464E+00 -.282E+00 0.509E-02
   0.237E+02 0.578E+01 0.511E+00   -.242E+02 -.567E+01 -.516E+00   0.583E+00 -.103E+00 0.659E-02
   0.321E+02 0.471E+02 -.938E+00   -.349E+02 -.497E+02 0.915E+00   0.237E+01 0.292E+01 0.116E-01
   0.271E+02 0.120E+01 -.138E+00   -.271E+02 -.132E+01 0.149E+00   -.291E-01 0.567E-01 -.193E-01
   0.531E+02 -.594E+01 0.172E+00   -.567E+02 0.637E+01 -.168E+00   0.351E+01 -.592E+00 -.772E-02
   0.192E+02 0.478E+00 0.611E+00   -.195E+02 -.629E+00 -.609E+00   0.321E+00 0.184E+00 0.107E-01
   0.642E+02 0.855E+01 -.125E-01   -.675E+02 -.904E+01 -.105E-01   0.345E+01 0.570E+00 0.339E-01
   0.606E+01 -.541E+02 -.752E+00   -.501E+01 0.567E+02 0.740E+00   -.121E+01 -.267E+01 0.179E-01
   0.116E+02 -.201E+02 0.729E-02   -.114E+02 0.205E+02 -.546E-02   -.819E-01 -.385E+00 0.950E-03
   0.301E+01 -.263E+01 0.123E+00   -.316E+01 0.271E+01 -.126E+00   0.100E+00 -.101E+00 0.293E-03
   0.208E+02 -.801E+01 0.169E+00   -.211E+02 0.806E+01 -.167E+00   0.270E+00 -.737E-01 -.232E-02
   0.101E+02 -.760E+01 0.372E+00   -.989E+01 0.769E+01 -.369E+00   -.903E-01 -.158E+00 -.296E-02
   -.109E+02 0.365E+01 0.533E+00   0.107E+02 -.378E+01 -.528E+00   0.112E+00 0.192E+00 -.599E-02
   0.109E+01 0.186E+02 0.355E+00   -.918E+00 -.192E+02 -.359E+00   0.167E-01 0.757E+00 0.770E-02
   0.742E-01 0.447E+01 0.847E+00   0.215E+00 -.481E+01 -.854E+00   -.220E+00 0.285E+00 0.970E-02
   -.113E+02 0.145E+02 0.735E+00   0.112E+02 -.151E+02 -.734E+00   0.111E-01 0.507E+00 0.168E-02
   -.585E+01 0.367E+02 0.851E+00   0.474E+01 -.397E+02 -.861E+00   0.115E+01 0.301E+01 0.139E-01
   -.133E+02 0.419E+02 -.832E+00   0.151E+02 -.454E+02 0.800E+00   -.162E+01 0.329E+01 0.441E-02
   -.388E+02 -.361E+02 0.528E+00   0.408E+02 0.397E+02 -.569E+00   -.212E+01 -.349E+01 0.480E-01
   0.484E+01 -.550E+02 -.600E+00   -.669E+01 0.581E+02 0.607E+00   0.187E+01 -.302E+01 -.143E-01
   -.236E+02 -.161E+02 0.110E+01   0.243E+02 0.171E+02 -.110E+01   -.666E+00 -.875E+00 0.609E-02
   -.140E+02 -.141E+02 0.900E+00   0.141E+02 0.146E+02 -.907E+00   -.427E-01 -.449E+00 0.852E-02
   -.201E+01 -.718E+01 0.514E+00   0.167E+01 0.745E+01 -.511E+00   0.238E+00 -.192E+00 -.113E-02
   -.405E+01 -.218E+02 0.268E+00   0.378E+01 0.222E+02 -.266E+00   0.130E+00 -.553E+00 -.857E-03
   -.822E+01 -.376E+01 0.494E+00   0.838E+01 0.399E+01 -.495E+00   -.123E+00 -.316E+00 -.849E-03
   -.798E+01 -.332E+00 -.688E-01   0.798E+01 0.404E+00 0.693E-01   -.282E-01 -.220E-01 -.879E-03
   -.187E+02 0.359E+01 0.371E+00   0.190E+02 -.368E+01 -.377E+00   -.350E+00 0.875E-01 0.625E-02
   -.171E+01 0.117E+01 0.629E-02   0.187E+01 -.128E+01 -.655E-02   -.138E+00 0.113E+00 -.833E-03
   0.787E+01 -.250E+01 0.138E+00   -.798E+01 0.263E+01 -.139E+00   0.983E-01 -.143E+00 0.229E-02
   -.549E+01 -.390E+01 0.590E-02   0.576E+01 0.422E+01 -.391E-02   -.255E+00 -.298E+00 -.231E-02
   -.506E+02 -.129E+02 0.572E+00   0.539E+02 0.132E+02 -.588E+00   -.355E+01 -.509E+00 0.165E-01
   -.146E+02 -.295E+01 -.318E-01   0.151E+02 0.308E+01 0.343E-01   -.380E+00 -.143E+00 -.954E-02
   0.575E+01 -.266E+01 0.243E+00   -.598E+01 0.302E+01 -.242E+00   0.140E+00 -.332E+00 0.133E-02
   0.526E+01 -.251E+01 0.229E+00   -.522E+01 0.261E+01 -.229E+00   0.907E-01 -.111E+00 -.491E-04
   -.438E+02 0.139E+02 0.316E+00   0.481E+02 -.144E+02 -.332E+00   -.402E+01 0.499E+00 0.237E-01
   -.176E+02 0.216E+01 0.141E+00   0.177E+02 -.203E+01 -.144E+00   -.196E+00 0.941E-02 -.228E-02
   0.136E+00 0.410E+01 0.274E+00   0.577E-01 -.427E+01 -.273E+00   -.245E+00 0.152E+00 -.196E-03
   -.280E+01 0.442E+01 0.713E+00   0.314E+01 -.477E+01 -.714E+00   -.273E+00 0.336E+00 0.292E-02
   -.220E+02 -.374E+01 0.495E+00   0.225E+02 0.374E+01 -.480E+00   -.589E+00 0.550E-01 -.130E-01
   -.207E+02 0.248E+01 0.902E+00   0.213E+02 -.275E+01 -.898E+00   -.621E+00 0.128E+00 0.312E-02
   0.903E+01 0.297E+01 0.500E+00   -.926E+01 -.323E+01 -.501E+00   0.191E+00 0.260E+00 -.300E-03
   -.584E+01 0.148E+01 0.236E-01   0.599E+01 -.161E+01 -.240E-01   -.124E+00 0.120E+00 -.337E-02
   -.146E+02 -.125E+01 0.420E-01   0.146E+02 0.123E+01 -.423E-01   -.122E+00 0.863E-02 -.326E-02
   -.520E+01 -.150E+01 0.702E-01   0.536E+01 0.157E+01 -.712E-01   -.205E+00 -.106E+00 -.232E-02
   0.959E+01 -.106E+01 -.764E-01   -.954E+01 0.997E+00 0.751E-01   -.123E-02 0.227E-01 -.992E-03
   0.639E+02 -.692E+01 0.115E+01   -.542E+02 0.249E+02 -.120E+01   -.911E+01 -.174E+02 0.618E-01
   0.518E+02 0.707E+01 -.338E+01   -.402E+02 -.262E+02 0.351E+01   -.109E+02 0.181E+02 -.170E+00
   -.148E+02 -.280E+00 -.406E+01   0.231E+02 0.157E+02 0.421E+01   -.862E+01 -.147E+02 -.103E+00
   -.238E+02 -.352E+02 0.346E+01   0.131E+02 0.538E+02 -.376E+01   0.111E+02 -.179E+02 0.324E+00
   -.464E+02 0.417E+02 -.408E+01   0.383E+02 -.586E+02 0.445E+01   0.797E+01 0.165E+02 -.370E+00
   -.270E+02 -.116E+02 0.408E+00   0.173E+02 -.459E+01 -.430E+00   0.973E+01 0.154E+02 0.165E-01
   0.145E+02 0.286E+02 0.100E+02   -.195E+02 -.269E+02 -.100E+02   0.312E+01 -.991E+00 0.486E-03
   -.559E+02 0.115E+02 -.161E+02   0.582E+02 -.134E+02 0.159E+02   -.182E+01 0.138E+01 0.929E-01
   -.827E+00 -.394E+00 0.375E-02   0.441E-12 0.568E-13 0.533E-14   0.369E+00 0.618E+00 0.386E-02

 POSITION                                       TOTAL-FORCE (eV/Angst)
      2.81589     12.52437     10.00690         0.043202      0.153412      0.003589
      0.69709      1.25208     10.00729         0.038639     -0.020474     -0.000037
      1.40402     12.53365     10.00771         0.023295      0.051781     -0.000332
      3.50900      1.21443     10.00764        -0.126730     -0.086318      0.006388
      2.82312      2.45550     10.00911        -0.040053     -0.010298      0.001176
      0.73730      3.76726     10.00778         0.072289      0.101398      0.004386
      1.40656      2.49603     10.00737         0.082329      0.007449      0.001905
      3.56524      3.66778     10.01228        -0.279960      0.514508     -0.011074
      0.81775      6.24449     10.00919         0.030435     -0.062052     -0.009536
      1.53462      4.97839     10.00813         0.054073     -0.193426     -0.003781
      0.74184      8.76484     10.00762         0.012924      0.046267      0.013086
      1.50846      7.53490     10.00963         0.415844      0.123123      0.012845
      3.52104      8.82215     10.01084        -0.224913     -0.196609      0.007095
      2.82711     10.05283     10.00864         0.090084      0.033622      0.002973
      0.71296     11.27894     10.00836        -0.056278     -0.019914     -0.001699
      1.41279     10.03134     10.00825         0.002127     -0.021818      0.000255
      3.52301     11.29006     10.00708         0.077344     -0.081601     -0.000525
      7.05068     12.52458     10.00527        -0.061974      0.072934     -0.000976
      4.92276      1.21071     10.00760         0.183908      0.192385      0.004394
      5.64316     12.51793     10.00555         0.062862     -0.034788      0.003999
      7.73283      1.22770     10.00464        -0.062404     -0.073854      0.002759
      7.03374      2.45276     10.00630         0.101188      0.179853      0.004222
      5.60950      2.44139     10.01205         0.144795     -0.104146     -0.027446
      6.99439      7.61590     10.00916        -0.305020     -0.084373      0.008922
      4.94812      8.82484     10.00946         0.125921     -0.013309     -0.008105
      7.73756      8.82757     10.00498         0.001970      0.037982      0.009969
      7.04994     10.06475     10.00467         0.059446      0.016380      0.002574
      4.93069     11.28965     10.00619        -0.092053      0.064022      0.001443
      5.63567     10.05870     10.00675        -0.126479     -0.146575      0.001097
      7.75734     11.29195     10.00496         0.039033     -0.103235     -0.001928
     11.27003     12.54839     10.00560        -0.042848      0.049291     -0.000433
      9.14780      1.25400     10.00479        -0.040659     -0.008055      0.000228
      9.86013     12.54281     10.00577         0.025253      0.012894     -0.001054
     11.94037      1.27537     10.00439         0.006786     -0.023285      0.001362
     11.24517      2.53711     10.00510        -0.009593      0.004421     -0.000342
      9.05022      3.75304     10.00539        -0.453773     -0.247524      0.000479
      9.81780      2.52396     10.00568         0.083955     -0.021714     -0.007468
     11.95457      3.79544     10.00451        -0.075205      0.012713      0.002832
     11.22228      5.03805     10.00508         0.148573     -0.015735      0.000360
      9.04718      6.31303     10.00862         0.099301      0.064792      0.009250
      9.74863      5.04060     10.00666        -0.058248      0.135335     -0.004811
     12.00574      6.26149     10.00454        -0.076078     -0.009274      0.000421
     11.27513      7.50692     10.00366         0.054051     -0.001372      0.001862
      9.15614      8.78905     10.00507        -0.067384      0.060408      0.002068
      9.83465      7.52185     10.00461        -0.048762     -0.133797      0.008041
     11.97815      8.76660     10.00379        -0.024035      0.010074     -0.001355
     11.28058     10.02634     10.00510         0.014477     -0.005556     -0.003844
      9.16869     11.28599     10.00565        -0.093269     -0.001893     -0.003591
      9.86296     10.03297     10.00544        -0.040993     -0.043755     -0.003355
     11.96412     11.28900     10.00529         0.064025     -0.045238     -0.002286
      2.94426      4.88957     10.00696        -0.242246     -0.970323      0.009771
      2.87692      7.60929     10.01400        -0.347597      0.560367     -0.055561
      4.94343      3.65430     10.01908        -1.098303     -0.444899      0.040223
      7.67249      3.67475     10.00362         1.350533     -0.873368      0.058058
      7.64154      6.40467     10.01852         0.614056      1.082636     -0.035462
      5.61201      7.60869     10.00818         0.837824      0.513031     -0.003688
      4.26890      6.25428     10.00044        -1.127464      0.548447      0.037328
      6.25202      5.07528     10.03188         0.261780     -0.550944     -0.076673
    total drift:                               -0.001509      0.005572     -0.006746

  FREE ENERGIE OF THE ION-ELECTRON SYSTEM (eV)
  free  energy   TOTEN  =      -607.14434250 eV

  energy  without entropy=     -607.13551050  energy(sigma->0) =     -607.13992650

 stress matrix after NEB project (eV)
    -38.65821     -1.08266      0.03161
     -1.08281    -43.09915     -0.06778
      0.03468     -0.07787     -0.44215
  FORCES: max atom, RMS     1.609373    0.443930
  FORCE total and by dimension    3.380868    1.350533
  Stress total and by dimension   57.918454   43.099154
 writing wavefunctions
 vacuum level on the upper side and lower side of the slab         1.490         1.490

 total charge

[...]

 magnetization (x)

# of ion       s       p       d       tot
    1       -0.000  -0.005   0.000  -0.006
    2        0.000  -0.001   0.000  -0.001
    3       -0.000  -0.005   0.000  -0.005
    4       -0.000  -0.009   0.000  -0.009
    5       -0.000  -0.011   0.000  -0.011
    6       -0.000  -0.011   0.000  -0.012
    7        0.000   0.000   0.000   0.001
    8       -0.000  -0.007   0.000  -0.007
    9       -0.001  -0.016   0.000  -0.017
   10        0.001  -0.000   0.000   0.000
   11       -0.001  -0.013   0.000  -0.014
   12       -0.000  -0.002   0.000  -0.002
   13        0.001  -0.002   0.000  -0.001
   14       -0.000  -0.003   0.000  -0.003
   15       -0.001  -0.011   0.000  -0.011
   16        0.000  -0.003   0.000  -0.003
   17       -0.000  -0.004   0.000  -0.004
   18        0.000  -0.002   0.000  -0.002
   19        0.000   0.002   0.000   0.002
   20       -0.000  -0.007   0.000  -0.008
   21        0.000   0.000   0.000   0.001
   22        0.001  -0.003   0.000  -0.002
   23       -0.001  -0.021   0.000  -0.022
   24        0.001   0.000   0.000   0.001
   25       -0.001  -0.019   0.000  -0.020
   26       -0.000  -0.008   0.000  -0.008
   27        0.000  -0.005   0.000  -0.005
   28       -0.000  -0.010   0.000  -0.010
   29        0.001   0.006   0.000   0.007
   30       -0.000  -0.006   0.000  -0.006
   31       -0.000  -0.008   0.000  -0.008
   32       -0.000  -0.007   0.000  -0.007
   33       -0.000  -0.008   0.000  -0.008
   34        0.000  -0.002   0.000  -0.002
   35       -0.000  -0.006   0.000  -0.006
   36        0.000  -0.010   0.000  -0.010
   37        0.000  -0.007   0.000  -0.007
   38       -0.001  -0.014   0.000  -0.015
   39        0.000  -0.000   0.000  -0.000
   40       -0.001  -0.015   0.000  -0.015
   41        0.000  -0.003   0.000  -0.003
   42        0.001   0.004   0.000   0.005
   43       -0.001  -0.019   0.000  -0.020
   44       -0.000  -0.003   0.000  -0.003
   45       -0.000  -0.009   0.000  -0.009
   46        0.000  -0.002   0.000  -0.002
   47       -0.000  -0.007   0.000  -0.008
   48       -0.000  -0.004   0.000  -0.004
   49        0.000   0.001   0.000   0.001
   50       -0.000  -0.004   0.000  -0.005
   51        0.001   0.005   0.000   0.006
   52       -0.013  -0.087   0.000  -0.100
   53       -0.012  -0.053   0.000  -0.065
   54        0.008  -0.012   0.000  -0.003
   55        0.000  -0.004   0.000  -0.004
   56        0.009   0.003   0.000   0.011
   57       -0.024  -0.035  -0.536  -0.595
   58        0.049   0.013   3.294   3.356
tot          0.014  -0.469   2.758   2.303