 vasp.5.4.4.18Apr17-6-g9f103f2a35 (build Feb 25 2019 10:51:38) complex

 executed on             LinuxIFC date 2021.06.16  13:51:49

 INCAR:
 POTCAR:    PAW_PBE C 08Apr2002
 POTCAR:    PAW_PBE N 08Apr2002
 POTCAR:    PAW_PBE Fe 06Sep2000

 POTCAR:    PAW_PBE C 08Apr2002
   VRHFIN =C: s2p2

   TITEL  = PAW_PBE C 08Apr2002
   POMASS =   12.011; ZVAL   =    4.000    mass and valenz
   ENMAX  =  400.000; ENMIN  =  300.000 eV

 POTCAR:    PAW_PBE N 08Apr2002
   VRHFIN =N: s2p3

   TITEL  = PAW_PBE N 08Apr2002
   POMASS =   14.001; ZVAL   =    5.000    mass and valenz
   ENMAX  =  400.000; ENMIN  =  300.000 eV

 POTCAR:    PAW_PBE Fe 06Sep2000
   VRHFIN =Fe:  d7 s1

   TITEL  = PAW_PBE Fe 06Sep2000
   POMASS =   55.847; ZVAL   =    8.000    mass and valenz
   ENMAX  =  267.882; ENMIN  =  200.911 eV

  PAW_PBE C 08Apr2002                   :
  PAW_PBE N 08Apr2002                   :
  PAW_PBE Fe 06Sep2000                  :

 POSCAR:  C  N Fe
  positions in cartesian coordinates
 exchange correlation table for  LEXCH =        8
   RHO(1)=    0.500       N(1)  =     2000
   RHO(2)=  100.500       N(2)  =     4000

 VTST: version 3.2, (02/03/18)

 CHAIN: initializing optimizer

 OPT: Using VASP Conjugate-Gradient optimizer
 CHAIN: Read ICHAIN            0

 POSCAR:  C  N Fe
  positions in cartesian coordinates

 ion  position               nearest neighbor table
   1  0.222  0.001  0.500-   3 1.42  19 1.43   4 1.43
   2  0.056  0.102  0.500-   3 1.42  33 1.43   7 1.43
   3  0.110  0.001  0.500-   2 1.42   1 1.42  17 1.43
   4  0.278  0.102  0.500-  21 1.42   1 1.43   5 1.43
   5  0.225  0.204  0.500-   4 1.43   7 1.43   8 1.44
   6  0.057  0.302  0.500-   7 1.42  11 1.42  37 1.44
   7  0.113  0.203  0.500-   6 1.42   2 1.43   5 1.43
   8  0.285  0.304  0.500-  50 1.38   5 1.44   9 1.46
   9  0.228  0.407  0.500-  49 1.36  11 1.45   8 1.46
  10  0.056  0.501  0.500-  14 1.42  11 1.42  40 1.44
  11  0.114  0.402  0.500-   6 1.42  10 1.42   9 1.45
  12  0.225  0.597  0.500-  49 1.36  14 1.44  15 1.45
  13  0.055  0.699  0.500-  18 1.42  14 1.42  44 1.44
  14  0.112  0.600  0.500-  10 1.42  13 1.42  12 1.44
  15  0.281  0.700  0.500-  52 1.37  16 1.43  12 1.45
  16  0.222  0.800  0.500-  19 1.42  18 1.43  15 1.43
  17  0.055  0.900  0.500-   3 1.43  18 1.43  48 1.43
  18  0.110  0.799  0.500-  13 1.42  17 1.43  16 1.43
  19  0.277  0.901  0.500-  27 1.42  16 1.42   1 1.43
  20  0.554  0.999  0.500-  22 1.41  23 1.42  29 1.43
  21  0.389  0.102  0.500-   4 1.42  25 1.42  22 1.43
  22  0.444  0.001  0.500-  20 1.41  27 1.42  21 1.43
  23  0.610  0.100  0.500-  31 1.42  20 1.42  24 1.42
  24  0.557  0.201  0.500-  51 1.37  23 1.42  25 1.44
  25  0.444  0.203  0.500-  50 1.38  21 1.42  24 1.44
  26  0.555  0.797  0.500-  53 1.38  29 1.42  28 1.44
  27  0.388  0.900  0.500-  19 1.42  22 1.42  28 1.42
  28  0.441  0.799  0.500-  52 1.37  27 1.42  26 1.44
  29  0.609  0.898  0.500-  46 1.42  26 1.42  20 1.43
  30  0.888  1.000  0.500-  48 1.42  32 1.42  33 1.43
  31  0.722  0.100  0.500-  23 1.42  36 1.42  32 1.42
  32  0.776  0.999  0.500-  30 1.42  31 1.42  46 1.43
  33  0.944  0.101  0.500-  30 1.43  34 1.43   2 1.43
  34  0.888  0.201  0.500-  37 1.42  33 1.43  36 1.43
  35  0.717  0.300  0.500-  51 1.37  36 1.43  39 1.45
  36  0.776  0.201  0.500-  31 1.42  34 1.43  35 1.43
  37  0.944  0.301  0.500-  34 1.42  38 1.42   6 1.44
  38  0.886  0.400  0.500-  40 1.42  37 1.42  39 1.44
  39  0.773  0.403  0.500-  54 1.36  38 1.44  35 1.45
  40  0.943  0.500  0.500-  38 1.42  41 1.42  10 1.44
  41  0.885  0.599  0.500-  44 1.42  40 1.42  43 1.45
  42  0.713  0.696  0.500-  53 1.38  47 1.44  43 1.46
  43  0.771  0.594  0.500-  54 1.36  41 1.45  42 1.46
  44  0.942  0.698  0.500-  45 1.42  41 1.42  13 1.44
  45  0.886  0.798  0.500-  44 1.42  48 1.43  47 1.43
  46  0.720  0.898  0.500-  29 1.42  32 1.43  47 1.43
  47  0.773  0.796  0.500-  46 1.43  45 1.43  42 1.44
  48  0.942  0.899  0.500-  30 1.42  17 1.43  45 1.43
  49  0.281  0.503  0.500-  12 1.36   9 1.36
  50  0.393  0.303  0.500-   8 1.38  25 1.38  55 2.03
  51  0.610  0.299  0.500-  35 1.37  24 1.37  55 1.99
  52  0.388  0.702  0.500-  15 1.37  28 1.37  56 1.99
  53  0.605  0.698  0.500-  42 1.38  26 1.38  56 2.04
  54  0.718  0.497  0.500-  39 1.36  43 1.36
  55  0.507  0.420  0.498-  51 1.99  56 1.99  50 2.03
  56  0.491  0.580  0.501-  55 1.99  52 1.99  53 2.04

  LATTYP: Found a triclinic cell.
 ALAT       =    12.3041000000
 B/A-ratio  =     1.4345753183
 C/A-ratio  =     1.6476052698
 COS(alpha) =     0.0000428570
 COS(beta)  =     0.0001012291
 COS(gamma) =     0.6923426438

  Lattice vectors:

 A1 = (   0.0806154682, -12.3038359042,   0.0000000000)
 A2 = ( -12.6561845318, -12.3038359042,   0.0000000000)
 A3 = (   0.0007784004,  -0.0020470905, -20.2722998817)

Analysis of symmetry for initial positions (statically):
 Subroutine PRICEL returns:
 Original cell was already a primitive cell.

 Routine SETGRP: Setting up the symmetry group for a
 triclinic supercell.

 Subroutine GETGRP returns: Found  1 space group operations
 (whereof  1 operations were pure point group operations)
 out of a pool of  2 trial point group operations.

The static configuration has the point symmetry C_1 .

Analysis of symmetry for dynamics (positions and initial velocities):
 Subroutine PRICEL returns:
 Original cell was already a primitive cell.

[...]

The dynamic configuration has the point symmetry C_1 .

Analysis of structural, dynamic, and magnetic symmetry:
 Subroutine PRICEL returns:
 Original cell was already a primitive cell.

 Routine SETGRP: Setting up the symmetry group for a
 triclinic supercell.

 Subroutine GETGRP returns: Found  1 space group operations
 (whereof  1 operations were pure point group operations)
 out of a pool of  2 trial point group operations.

The magnetic configuration has the point symmetry C_1 .

 Subroutine INISYM returns: Found  1 space group operations
 (whereof  1 operations are pure point group operations),
 and found     1 'primitive' translations

 KPOINTS: KPOINTS created by Atomic Simulation Env

Automatic generation of k-mesh.
Space group operators:
 irot       det(A)        alpha          n_x          n_y          n_z        tau_x        tau_y        tau_z
    1     1.000000     0.000000     1.000000     0.000000     0.000000     0.000000     0.000000     0.000000

 Subroutine IBZKPT returns following result:

 Found      2 irreducible k-points:

 Following reciprocal coordinates:
            Coordinates               Weight
  0.250000  0.250000 -0.000000      2.000000
 -0.250000  0.250000  0.000000      2.000000

 Following cartesian coordinates:
            Coordinates               Weight
  0.019628  0.020447 -0.000001      2.000000
 -0.019628  0.020190 -0.000003      2.000000

 Subroutine IBZKPT_HF returns following result:

 Found      4 k-points in 1st BZ
 the following      4 k-points will be used (e.g. in the exchange kernel)
 Following reciprocal coordinates:   # in IRBZ
  0.250000  0.250000 -0.000000    0.25000000   1 t-inv F
 -0.250000  0.250000  0.000000    0.25000000   2 t-inv F
 -0.250000 -0.250000  0.000000    0.25000000   1 t-inv T
  0.250000 -0.250000 -0.000000    0.25000000   2 t-inv T

 SYSTEM =  unknown system
 POSCAR =   C  N Fe

 Startparameter for this run:
   NWRITE =      2    write-flag & timer
   PREC   = accura    normal or accurate (medium, high low for compatibility)
   ISTART =      1    job   : 0-new  1-cont  2-samecut
   ICHARG =      0    charge: 1-file 2-atom 10-const
   ISPIN  =      2    spin polarized calculation?
   LNONCOLLINEAR =      F non collinear calculations
   LSORBIT =      F    spin-orbit coupling
   INIWAV =      1    electr: 0-lowe 1-rand  2-diag
   LASPH  =      T    aspherical Exc in radial PAW
   METAGGA=      F    non-selfconsistent MetaGGA calc.

 Electronic Relaxation 1
   ENCUT  =  500.0 eV  36.75 Ry    6.06 a.u.  23.22 22.43 36.96*2*pi/ulx,y,z
   ENINI  =  500.0     initial cutoff
   ENAUG  =  644.9 eV  augmentation charge cutoff
   NELM   =    250;   NELMIN=  2; NELMDL=  0     # of ELM steps
   EDIFF  = 0.1E-03   stopping-criterion for ELM
   LREAL  =      F    real-space projection
   NLSPLINE    = F    spline interpolate recip. space projectors
   LCOMPAT=      F    compatible to vasp.4.4
   GGA_COMPAT  = T    GGA compatible to vasp.4.4-vasp.4.6
   LMAXPAW     = -100 max onsite density
   LMAXMIX     =    2 max onsite mixed and CHGCAR
   VOSKOWN=      0    Vosko Wilk Nusair interpolation
   ROPT   =    0.00000   0.00000   0.00000
 Ionic relaxation
   EDIFFG = -.3E-01   stopping-criterion for IOM
   NSW    =      0    number of steps for IOM
   NBLOCK =      1;   KBLOCK =      1    inner block; outer block
   IBRION =     -1    ionic relax: 0-MD 1-quasi-New 2-CG
   NFREE  =      1    steps in history (QN), initial steepest desc. (CG)
   ISIF   =      2    stress and relaxation
   IWAVPR =     10    prediction:  0-non 1-charg 2-wave 3-comb
   ISYM   =      3    0-nonsym 1-usesym 2-fastsym
   LCORR  =      T    Harris-Foulkes like correction to forces

   POTIM  = 0.5000    time-step for ionic-motion
   TEIN   =    0.0    initial temperature
   TEBEG  =    0.0;   TEEND  =   0.0 temperature during run
   SMASS  =  -3.00    Nose mass-parameter (am)
   estimated Nose-frequenzy (Omega)   =  0.10E-29 period in steps =****** mass=  -0.371E-26a.u.
   SCALEE = 1.0000    scale energy and forces
   NPACO  =    256;   APACO  = 16.0  distance and # of slots for P.C.
   PSTRESS=    0.0 pullay stress

  Mass of Ions in am
   POMASS =  12.01 14.00 55.85
  Ionic Valenz
   ZVAL   =   4.00  5.00  8.00
  Atomic Wigner-Seitz radii
  virtual crystal weights
   VCA    =   1.00  1.00  1.00
   NELECT =     238.0000    total number of electrons
   NUPDOWN=      -1.0000    fix difference up-down

 DOS related values:
   EMIN   =  10.00;   EMAX   =-10.00  energy-range for DOS
   EFERMI =   0.00
   ISMEAR =     0;   SIGMA  =   0.10  broadening in eV -4-tet -1-fermi 0-gaus

 Electronic relaxation 2 (details)
   IALGO  =     53    algorithm
   LDIAG  =      T    sub-space diagonalisation (order eigenvalues)
   LSUBROT=      F    optimize rotation matrix (better conditioning)
   TURBO    =      0    0=normal 1=particle mesh
   IRESTART =      0    0=no restart 2=restart with 2 vectors
   NREBOOT  =      0    no. of reboots
   NMIN     =      0    reboot dimension
   EREF     =   0.00    reference energy to select bands
   IMIX   =      4    mixing-type and parameters
     AMIX     =   0.40;   BMIX     =  1.00
     AMIX_MAG =   1.60;   BMIX_MAG =  1.00
     AMIN     =   0.10
     WC   =   100.;   INIMIX=   1;  MIXPRE=   1;  MAXMIX= -45

 Intra band minimization:
   WEIMIN = 0.0000     energy-eigenvalue tresh-hold
   EBREAK =  0.16E-06  absolut break condition
   DEPER  =   0.30     relativ break condition

   TIME   =   0.20     timestep for ELM

  volume/ion in A,a.u.               =      56.73       382.84
  Fermi-wavevector in a.u.,A,eV,Ry     =   0.690133  1.304161  6.480223  0.476283
  Thomas-Fermi vector in A             =   1.771414

 Write flags
   LWAVE        =      T    write WAVECAR
   LDOWNSAMPLE  =      F    k-point downsampling of WAVECAR
[...]
   21        0.869   1.782   0.000   2.651
   22        0.867   1.796   0.000   2.663
   23        0.870   1.787   0.000   2.656
   24        0.862   1.746   0.000   2.609
   25        0.861   1.738   0.000   2.599
   26        0.861   1.738   0.000   2.599
   27        0.870   1.787   0.000   2.656
   28        0.862   1.746   0.000   2.609
   29        0.869   1.782   0.000   2.651
   30        0.867   1.778   0.000   2.646
   31        0.872   1.770   0.000   2.642
   32        0.864   1.787   0.000   2.651
   33        0.866   1.771   0.000   2.637
   34        0.868   1.774   0.000   2.641
   35        0.860   1.736   0.000   2.596
   36        0.866   1.775   0.000   2.641
   37        0.864   1.778   0.000   2.642
   38        0.868   1.773   0.000   2.641
   39        0.858   1.739   0.000   2.597
   40        0.869   1.765   0.000   2.634
   41        0.865   1.763   0.000   2.628
   42        0.853   1.710   0.000   2.563
   43        0.854   1.723   0.000   2.577
   44        0.864   1.777   0.000   2.642
   45        0.866   1.766   0.000   2.632
   46        0.871   1.766   0.000   2.637
   47        0.863   1.762   0.000   2.625
   48        0.866   1.770   0.000   2.636
   49        1.253   2.606   0.000   3.859
   50        1.234   2.646   0.000   3.881
   51        1.239   2.679   0.000   3.918
   52        1.239   2.679   0.000   3.918
   53        1.235   2.646   0.000   3.880
   54        1.253   2.606   0.000   3.859
   55        0.402   0.388   6.317   7.107
   56        0.402   0.386   6.314   7.103
tot         49.765 101.303  12.631 163.699

 magnetization (x)

[...]

  FORCE on cell =-STRESS in cart. coord.  units (eV):
  Direction    XX          YY          ZZ          XY          YZ          ZX
  Alpha Z    96.47950    96.47950    96.47950
  Ewald   46796.45553 47100.29652-55245.85057   -24.40495    -3.89276     0.63917
  Hartree 46352.47117 46469.71698-45803.52242    -7.64676    -2.12347     0.03828
  E(xc)    -699.39037  -701.56765  -713.56395     0.20214    -0.07983     0.04444
  Local  -95698.68941-96114.22603 98037.93225    30.48110     5.46515    -0.17499
  n-local  -171.17196  -168.25686  -159.85385    -1.84113    -0.02785     0.01177
  augment    51.32124    60.84898    51.57038     0.74964     0.40495    -0.24733
  Kinetic  3570.46157  3561.04739  4039.56099     2.79977     0.75411    -0.44624
  Fock     -331.97843  -339.86971  -303.35318    -1.20344    -0.35625     0.07170
  Total     -34.04115   -35.53088    -0.60084    -0.86362     0.14406    -0.06320
  in kB     -17.16765   -17.91895    -0.30302    -0.43554     0.07265    -0.03187

 VOLUME and BASIS-vectors are now :
  energy-cutoff  :      500.00
  volume of cell :     3176.90
      direct lattice vectors                 reciprocal lattice vectors
    12.736800000  0.000000000  0.000000000     0.078512656  0.000514420  0.000002963
    -0.080615468 12.303835904  0.000000000     0.000000000  0.081275466 -0.000008207
    -0.000778400  0.002047091 20.272299882     0.000000000  0.000000000  0.049328394

  length of vectors
    12.736800000 12.304100000 20.272300000     0.078514342  0.081275467  0.049328394

 FORCES acting on ions:
    Electron-Ion                     Ewald-Force                    Non-Local-Force
   0.278E+01 -.157E+01 -.205E+00   -.316E+01 0.160E+01 0.207E+00   0.399E+00 -.408E-01 -.342E-02
   -.640E-01 -.334E+01 -.605E+00   0.167E+00 0.330E+01 0.605E+00   -.610E-02 0.197E-01 -.123E-02
   0.295E+01 0.164E+00 -.421E+00   -.306E+01 -.157E+00 0.420E+00   0.792E-01 0.595E-02 -.533E-03
   0.860E+01 0.976E+00 -.199E+00   -.891E+01 -.120E+01 0.199E+00   0.309E+00 0.208E+00 -.290E-03
   0.778E+01 -.659E+01 -.383E+00   -.798E+01 0.694E+01 0.383E+00   0.261E+00 -.245E+00 -.555E-02
   0.185E+01 -.170E+01 -.102E+00   -.203E+01 0.145E+01 0.103E+00   0.159E+00 0.124E+00 0.356E-03
   -.146E+01 0.431E+00 -.484E+00   0.105E+01 -.322E+00 0.484E+00   0.219E+00 -.810E-01 -.307E-03
   0.262E+02 -.190E+02 0.233E-01   -.288E+02 0.191E+02 0.136E-01   0.296E+01 -.547E+00 -.498E-01
   -.128E+01 0.251E+02 -.371E-01   0.457E-01 -.270E+02 0.346E-01   0.124E+01 0.229E+01 0.940E-02
   0.788E+01 0.237E+01 0.112E+00   -.744E+01 -.240E+01 -.111E+00   -.613E-01 0.401E-01 -.187E-02
   -.517E+01 0.468E+01 0.199E+00   0.528E+01 -.513E+01 -.199E+00   -.186E+00 0.513E+00 0.912E-02
   0.408E+01 -.190E+02 0.697E-01   -.548E+01 0.207E+02 -.748E-01   0.138E+01 -.214E+01 0.156E-01
   0.461E+01 0.227E+01 0.140E+00   -.486E+01 -.204E+01 -.140E+00   0.222E+00 -.129E+00 -.857E-03
   -.145E+01 -.474E+01 0.245E+00   0.143E+01 0.519E+01 -.235E+00   -.794E-01 -.501E+00 -.400E-02
   0.305E+02 0.153E+02 0.416E+00   -.335E+02 -.155E+02 -.431E+00   0.332E+01 0.524E+00 0.179E-01
   0.100E+02 0.284E+01 0.473E+00   -.103E+02 -.302E+01 -.478E+00   0.388E+00 0.753E-01 0.552E-02
   0.151E+01 0.720E+00 -.231E+00   -.147E+01 -.662E+00 0.231E+00   0.532E-01 -.662E-01 -.120E-02
   0.144E+01 -.606E+00 0.154E+00   -.195E+01 0.518E+00 -.155E+00   0.328E+00 0.695E-01 0.740E-03
   0.811E+01 -.434E+01 0.255E+00   -.840E+01 0.465E+01 -.251E+00   0.276E+00 -.288E+00 -.122E-02
   -.531E+01 0.216E+01 0.185E+00   0.496E+01 -.219E+01 -.186E+00   0.335E+00 0.375E-01 0.775E-03
   0.104E+01 0.529E+01 -.132E+00   -.805E+00 -.579E+01 0.135E+00   -.148E+00 0.443E+00 -.915E-03
   0.527E+01 -.210E+01 0.900E-01   -.492E+01 0.213E+01 -.886E-01   -.337E+00 -.329E-01 -.126E-02
   -.166E+00 0.616E+01 -.121E+00   -.125E+00 -.672E+01 0.123E+00   0.182E+00 0.487E+00 0.281E-02
   0.136E+02 0.245E+02 -.673E-01   -.147E+02 -.271E+02 0.671E-01   0.153E+01 0.282E+01 -.266E-02
   -.699E+01 0.194E+02 0.188E+00   0.780E+01 -.217E+02 -.211E+00   -.132E+01 0.261E+01 0.144E-01
   0.701E+01 -.193E+02 0.167E+00   -.782E+01 0.216E+02 -.147E+00   0.132E+01 -.260E+01 -.108E-01
   0.106E+00 -.604E+01 0.372E+00   0.186E+00 0.659E+01 -.374E+00   -.183E+00 -.486E+00 -.238E-02
   -.138E+02 -.244E+02 0.502E+00   0.148E+02 0.270E+02 -.503E+00   -.154E+01 -.281E+01 0.615E-02
   -.994E+00 -.512E+01 0.393E+00   0.758E+00 0.562E+01 -.395E+00   0.148E+00 -.439E+00 0.250E-02
   -.294E+01 -.156E+00 -.454E+00   0.304E+01 0.149E+00 0.454E+00   -.792E-01 -.817E-02 -.800E-03
   -.813E+01 0.431E+01 -.371E+00   0.842E+01 -.462E+01 0.368E+00   -.277E+00 0.286E+00 0.119E-02
   -.276E+01 0.166E+01 -.310E+00   0.314E+01 -.169E+01 0.310E+00   -.399E+00 0.381E-01 -.110E-02
   -.149E+01 -.710E+00 -.615E+00   0.144E+01 0.654E+00 0.615E+00   -.525E-01 0.640E-01 -.561E-03
   -.142E+01 0.572E+00 -.557E+00   0.193E+01 -.482E+00 0.557E+00   -.326E+00 -.724E-01 -.236E-02
   -.306E+02 -.155E+02 -.121E+00   0.336E+02 0.156E+02 0.137E+00   -.332E+01 -.525E+00 -.172E-01
   -.100E+02 -.283E+01 -.524E+00   0.103E+02 0.301E+01 0.530E+00   -.388E+00 -.781E-01 -.489E-02
   -.458E+01 -.225E+01 -.206E+00   0.483E+01 0.202E+01 0.207E+00   -.224E+00 0.127E+00 -.832E-05
   0.152E+01 0.471E+01 0.574E-01   -.151E+01 -.516E+01 -.674E-01   0.778E-01 0.500E+00 0.593E-02
   -.403E+01 0.191E+02 0.318E+00   0.542E+01 -.208E+02 -.311E+00   -.138E+01 0.214E+01 -.152E-01
   -.783E+01 -.238E+01 0.165E+00   0.739E+01 0.242E+01 -.166E+00   0.598E-01 -.402E-01 0.250E-03
   0.522E+01 -.470E+01 0.127E+00   -.532E+01 0.515E+01 -.128E+00   0.185E+00 -.514E+00 -.596E-02
   -.260E+02 0.190E+02 0.203E+00   0.286E+02 -.191E+02 -.240E+00   -.295E+01 0.548E+00 0.505E-01
   0.138E+01 -.252E+02 0.376E+00   -.141E+00 0.271E+02 -.370E+00   -.124E+01 -.229E+01 -.105E-01
   -.180E+01 0.170E+01 0.716E-01   0.198E+01 -.145E+01 -.711E-01   -.160E+00 -.127E+00 -.125E-02
   0.153E+01 -.430E+00 0.180E+00   -.113E+01 0.322E+00 -.180E+00   -.219E+00 0.802E-01 0.116E-02
   -.861E+01 -.969E+00 0.549E-01   0.892E+01 0.119E+01 -.538E-01   -.308E+00 -.209E+00 -.120E-02
   -.772E+01 0.669E+01 0.353E+00   0.792E+01 -.704E+01 -.353E+00   -.260E+00 0.245E+00 0.704E-02
   0.102E+00 0.336E+01 -.227E+00   -.205E+00 -.333E+01 0.227E+00   0.704E-02 -.215E-01 -.154E-02
   -.114E+03 0.524E+01 -.908E+00   0.144E+03 -.469E+01 0.839E+00   -.287E+02 -.474E+00 0.285E-01
   -.584E+01 -.723E+02 0.176E+01   0.170E+02 0.925E+02 -.180E+01   -.113E+02 -.196E+02 0.109E+00
   0.957E+01 -.654E+02 0.211E+00   -.206E+02 0.851E+02 -.306E+00   0.109E+02 -.194E+02 0.775E-01
   -.998E+01 0.655E+02 0.419E+00   0.210E+02 -.852E+02 -.348E+00   -.109E+02 0.194E+02 -.546E-01
   0.623E+01 0.729E+02 -.141E+01   -.174E+02 -.931E+02 0.144E+01   0.113E+02 0.197E+02 -.102E+00
   0.114E+03 -.531E+01 0.145E+01   -.145E+03 0.476E+01 -.140E+01   0.287E+02 0.470E+00 -.165E-01
   -.381E+01 -.389E+02 0.206E+02   0.289E+01 0.336E+02 -.204E+02   0.224E+01 0.270E+01 -.445E+00
   0.297E+01 0.377E+02 -.217E+02   -.211E+01 -.324E+02 0.214E+02   -.217E+01 -.267E+01 0.443E+00
   -.958E-01 -.895E-01 -.285E-01   -.234E-12 -.547E-12 0.000E+00   0.908E-01 0.842E-01 0.403E-01

 POSITION                                       TOTAL-FORCE (eV/Angst)
      2.82690      0.01898     10.13607         0.034756     -0.015455     -0.001887
      0.70483      1.25078     10.13767         0.095816     -0.017525     -0.001636
      1.40230      0.01093     10.13710        -0.020262      0.014676     -0.001524
      3.53191      1.25861     10.13533         0.025435      0.001997     -0.000360
      2.85151      2.51312     10.13552         0.077080      0.081596     -0.006137
      0.69849      3.71807     10.13570        -0.003890     -0.117739      0.000676
      1.41684      2.49392     10.13677        -0.178061      0.029722     -0.001118
      3.60588      3.74344     10.13294         0.554773     -0.477965     -0.015641
      2.86907      5.00461     10.13490         0.074567      0.553329      0.007132
      0.67005      6.15934     10.13473         0.384670      0.012868     -0.000702
      1.41688      4.94658     10.13470        -0.100473      0.087448      0.009328
      2.82081      7.35071     10.13598         0.074178     -0.570572      0.010995
      0.63764      8.60415     10.13504        -0.006568      0.095097     -0.001449
      1.37746      7.38667     10.13488        -0.104747     -0.088962      0.005631
      3.52161      8.61923     10.13602         0.557567      0.396398      0.003157
      2.76770      9.83795     10.13486         0.117651     -0.098619      0.000611
      0.62197     11.07217     10.13655         0.103827     -0.012048     -0.001553
      1.33803      9.83737     10.13533        -0.164559     -0.018400      0.000411
      3.45283     11.08521     10.13511         0.009278      0.003084      0.002226
      6.98142     12.29865     10.13461         0.000018      0.012518     -0.000322
      4.95205      1.25630     10.13417         0.072634     -0.034607      0.001477
      5.65337      0.01270     10.13465        -0.000161     -0.007099     -0.000223
      7.76254      1.23145     10.13446        -0.094780     -0.040170      0.004467
      7.07772      2.48013     10.13210         0.614208      0.406120     -0.003405
      5.63660      2.50342     10.13123        -0.580935      0.459173     -0.008883
      6.99814      9.80763     10.13773         0.581970     -0.450021      0.009537
      4.87218     11.08012     10.13501         0.095479      0.036255     -0.004448
      5.55698      9.83120     10.13662        -0.616658     -0.403559      0.005729
      7.68272     11.05512     10.13534        -0.075370      0.031061     -0.000062
     11.23236     12.30147     10.13733         0.019164     -0.017388     -0.001147
      9.18191      1.22686     10.13597        -0.009297     -0.003837     -0.002330
      9.80778     12.29321     10.13661        -0.034664      0.012531     -0.001424
     12.01268      1.24026     10.13777        -0.104386      0.011509     -0.001541
     11.29665      2.47509     10.13700         0.166844      0.016370     -0.002610
      9.11294      3.69289     10.13318        -0.549202     -0.394563     -0.002176
      9.86697      2.47431     10.13599        -0.118231      0.095837      0.000295
     11.99729      3.70827     10.13582         0.003963     -0.096267      0.000676
     11.25752      4.92571     10.13438         0.101460      0.086439     -0.004064
      9.81404      4.96152     10.13276        -0.074212      0.565320     -0.008711
     11.96498      6.15303     10.13438        -0.386682     -0.012347     -0.000822
     11.21814      7.36580     10.13453         0.101063     -0.088538     -0.007295
      9.02864      8.56837     10.13654        -0.554627      0.480200      0.016477
      9.76600      7.30752     10.13398        -0.077491     -0.551969     -0.005548
     11.93644      8.59439     10.13508         0.003071      0.112951     -0.001078
     11.21790      9.81836     10.13536         0.175624     -0.029002      0.001050
      9.10277     11.05335     10.13583        -0.023444     -0.003817     -0.000437
      9.78313      9.79891     10.13534        -0.077843     -0.083442      0.007148
     11.92979     11.06162     10.13660        -0.094573      0.015638     -0.002115
      3.53479      6.19272     10.13707        -1.127638      0.039528     -0.036204
      4.98644      3.72507     10.12747        -1.168831     -1.150129      0.076080
      7.74658      3.67809     10.12993         0.827834     -1.465860     -0.010391
      4.88806      8.63358     10.13873        -0.825691      1.456103      0.010844
      7.64795      8.58618     10.14176         1.163622      1.139575     -0.074346
      9.10036      6.11948     10.13144         1.122857     -0.037288      0.034499
      6.42237      5.16412     10.10555         1.350942     -1.870114     -0.149513
      6.20970      7.14306     10.16616        -1.337073      1.903959      0.152654
    total drift:                                0.001650      0.001933      0.016314

  FREE ENERGIE OF THE ION-ELECTRON SYSTEM (eV)
  free  energy   TOTEN  =      -587.22799936 eV

  energy  without entropy=     -587.22309933  energy(sigma->0) =     -587.22554934

 stress matrix after NEB project (eV)
    -34.04115     -0.86782     -0.06320
     -0.86362    -35.53088      0.14382
     -0.06304      0.14406     -0.60084
  FORCES: max atom, RMS     2.331550    0.737398
  FORCE total and by dimension    5.518183    1.903959
  Stress total and by dimension   49.225529   35.530877
 writing wavefunctions

 total charge

[...]

 magnetization (x)

# of ion       s       p       d       tot
    1        0.000   0.001   0.000   0.001
    2        0.000   0.001   0.000   0.001
    3       -0.000   0.000   0.000   0.000
    4        0.000   0.002   0.000   0.002
    5        0.000   0.002   0.000   0.002
    6        0.000   0.002   0.000   0.002
    7       -0.000  -0.000   0.000  -0.000
    8       -0.000   0.001   0.000   0.001
    9        0.001   0.004   0.000   0.004
   10       -0.000   0.001   0.000   0.001
   11       -0.000   0.000   0.000   0.000
   12        0.000   0.002   0.000   0.003
   13        0.000   0.001   0.000   0.002
   14       -0.000   0.000   0.000  -0.000
   15       -0.000   0.003   0.000   0.003
   16        0.000   0.002   0.000   0.002
   17        0.000   0.001   0.000   0.001
   18       -0.000  -0.000   0.000  -0.000
   19        0.000   0.002   0.000   0.002
   20        0.000   0.002   0.000   0.002
   21       -0.000  -0.000   0.000  -0.000
   22        0.000   0.002   0.000   0.002
   23       -0.000  -0.000   0.000  -0.001
   24        0.001   0.005   0.000   0.006
   25        0.000   0.005   0.000   0.006
   26        0.000   0.005   0.000   0.006
   27       -0.000  -0.000   0.000  -0.000
   28        0.001   0.005   0.000   0.006
   29       -0.000  -0.000   0.000  -0.000
   30       -0.000   0.000   0.000   0.000
   31        0.000   0.002   0.000   0.002
   32        0.000   0.001   0.000   0.001
   33        0.000   0.001   0.000   0.001
   34       -0.000   0.000   0.000   0.000
   35        0.000   0.003   0.000   0.003
   36        0.000   0.002   0.000   0.002
   37        0.000   0.001   0.000   0.002
   38       -0.000   0.000   0.000   0.000
   39        0.000   0.002   0.000   0.002
   40       -0.000   0.001   0.000   0.000
   41       -0.000   0.000   0.000   0.000
   42       -0.000   0.001   0.000   0.001
   43        0.001   0.004   0.000   0.004
   44        0.000   0.002   0.000   0.002
   45       -0.000  -0.000   0.000  -0.000
   46        0.000   0.002   0.000   0.002
   47        0.000   0.002   0.000   0.002
   48        0.000   0.001   0.000   0.001
   49       -0.004  -0.012   0.000  -0.017
   50       -0.002  -0.009   0.000  -0.010
   51       -0.002  -0.009   0.000  -0.010
   52       -0.002  -0.009   0.000  -0.010
   53       -0.001  -0.009   0.000  -0.010
   54       -0.004  -0.012   0.000  -0.017
   55       -0.080  -0.056   3.161   3.026
   56       -0.081  -0.056   3.165   3.028
tot         -0.171  -0.099   6.326   6.056