 vasp.5.4.4.18Apr17-6-g9f103f2a35 (build Feb 25 2019 10:51:38) complex

 executed on             LinuxIFC date 2021.08.09  11:50:06

 INCAR:
 POTCAR:    PAW_PBE C 08Apr2002
 POTCAR:    PAW_PBE N 08Apr2002
 POTCAR:    PAW_PBE Fe 06Sep2000
 POTCAR:    PAW_PBE Mn 06Sep2000

 POTCAR:    PAW_PBE C 08Apr2002
   VRHFIN =C: s2p2

   TITEL  = PAW_PBE C 08Apr2002
   POMASS =   12.011; ZVAL   =    4.000    mass and valenz
   ENMAX  =  400.000; ENMIN  =  300.000 eV

 POTCAR:    PAW_PBE N 08Apr2002
   VRHFIN =N: s2p3

   TITEL  = PAW_PBE N 08Apr2002
   POMASS =   14.001; ZVAL   =    5.000    mass and valenz
   ENMAX  =  400.000; ENMIN  =  300.000 eV

 POTCAR:    PAW_PBE Fe 06Sep2000
   VRHFIN =Fe:  d7 s1

   TITEL  = PAW_PBE Fe 06Sep2000
   POMASS =   55.847; ZVAL   =    8.000    mass and valenz
   ENMAX  =  267.882; ENMIN  =  200.911 eV

 POTCAR:    PAW_PBE Mn 06Sep2000
   VRHFIN =Mn: d6 s1

   TITEL  = PAW_PBE Mn 06Sep2000
   POMASS =   54.938; ZVAL   =    7.000    mass and valenz
   ENMAX  =  269.864; ENMIN  =  202.398 eV

  PAW_PBE C 08Apr2002                   :
  PAW_PBE N 08Apr2002                   :
  PAW_PBE Fe 06Sep2000                  :
  PAW_PBE Mn 06Sep2000                  :

 POSCAR:  C  N Fe Mn
  positions in cartesian coordinates
 exchange correlation table for  LEXCH =        8
   RHO(1)=    0.500       N(1)  =     2000
   RHO(2)=  100.500       N(2)  =     4000

 VTST: version 3.2, (02/03/18)

 CHAIN: initializing optimizer

 OPT: Using VASP Conjugate-Gradient optimizer
 CHAIN: Read ICHAIN            0

 POSCAR:  C  N Fe Mn
  positions in cartesian coordinates

 ion  position               nearest neighbor table
   1  0.221  0.999  0.500-   4 1.42  19 1.43   3 1.43
   2  0.052  0.101  0.500-   7 1.42   3 1.43  34 1.43
   3  0.110  0.000  0.500-  17 1.42   2 1.43   1 1.43
   4  0.275  0.099  0.500-   1 1.42   5 1.42  21 1.43
   5  0.218  0.199  0.500-   8 1.41   4 1.42   7 1.43
   6  0.051  0.301  0.500-   7 1.42  11 1.43  38 1.43
   7  0.107  0.200  0.500-   6 1.42   2 1.42   5 1.43
   8  0.272  0.298  0.500-  51 1.38   5 1.41   9 1.42
   9  0.217  0.399  0.500-  50 1.39  11 1.41   8 1.42
  10  0.055  0.501  0.500-  11 1.42  41 1.42  14 1.44
  11  0.108  0.400  0.500-   9 1.41  10 1.42   6 1.43
  12  0.226  0.595  0.500-  50 1.39  14 1.44  15 1.47
  13  0.058  0.701  0.500-  18 1.42  14 1.43  45 1.43
  14  0.114  0.600  0.500-  13 1.43  12 1.44  10 1.44
  15  0.285  0.696  0.500-  53 1.38  16 1.45  12 1.47
  16  0.225  0.797  0.500-  19 1.43  18 1.44  15 1.45
  17  0.056  0.901  0.500-   3 1.42  18 1.43  49 1.43
  18  0.113  0.800  0.500-  13 1.42  17 1.43  16 1.44
  19  0.279  0.898  0.500-  16 1.43  28 1.43   1 1.43
  20  0.554  0.002  0.500-  22 1.43  30 1.43  23 1.44
  21  0.386  0.101  0.500-   4 1.43  22 1.43  25 1.45
  22  0.443  0.000  0.500-  20 1.43  21 1.43  28 1.44
  23  0.607  0.104  0.500-  24 1.44  32 1.44  20 1.44
  24  0.550  0.206  0.500-  23 1.44  25 1.44  26 1.45
  25  0.438  0.205  0.500-  51 1.38  24 1.44  21 1.45
  26  0.605  0.308  0.500-  52 1.34  24 1.45  36 1.45
  27  0.558  0.797  0.500-  54 1.37  30 1.45  29 1.48
  28  0.390  0.898  0.500-  19 1.43  22 1.44  29 1.45
  29  0.444  0.794  0.500-  53 1.38  28 1.45  27 1.48
  30  0.610  0.901  0.500-  20 1.43  47 1.44  27 1.45
  31  0.887  0.003  0.500-  34 1.42  49 1.43  33 1.44
  32  0.718  0.106  0.500-  33 1.43  23 1.44  37 1.44
  33  0.775  0.005  0.500-  47 1.43  32 1.43  31 1.44
  34  0.941  0.103  0.500-  31 1.42  35 1.43   2 1.43
  35  0.885  0.204  0.500-  38 1.43  34 1.43  37 1.44
  36  0.717  0.309  0.500-  37 1.44  40 1.45  26 1.45
  37  0.773  0.207  0.500-  35 1.44  36 1.44  32 1.44
  38  0.941  0.303  0.500-  39 1.42  35 1.43   6 1.43
  39  0.886  0.405  0.500-  38 1.42  41 1.43  40 1.44
  40  0.775  0.409  0.500-  55 1.38  39 1.44  36 1.45
  41  0.945  0.503  0.500-  10 1.42  42 1.42  39 1.43
  42  0.891  0.605  0.500-  44 1.41  41 1.42  45 1.42
  43  0.724  0.706  0.500-  54 1.38  48 1.42  44 1.43
  44  0.781  0.605  0.501-  55 1.38  42 1.41  43 1.43
  45  0.947  0.703  0.500-  46 1.42  42 1.42  13 1.43
  46  0.890  0.803  0.500-  49 1.42  45 1.42  48 1.43
  47  0.721  0.904  0.500-  48 1.42  33 1.43  30 1.44
  48  0.779  0.804  0.500-  43 1.42  47 1.42  46 1.43
  49  0.945  0.903  0.500-  46 1.42  31 1.43  17 1.43
  50  0.275  0.494  0.499-  12 1.39   9 1.39  56 1.89
  51  0.380  0.301  0.499-  25 1.38   8 1.38  56 1.92
  52  0.551  0.401  0.500-  26 1.34  57 1.81  56 1.81
  53  0.392  0.696  0.500-  29 1.38  15 1.38
  54  0.617  0.703  0.501-  27 1.37  43 1.38  57 2.01
  55  0.726  0.510  0.501-  44 1.38  40 1.38  57 1.98
  56  0.417  0.451  0.499-  52 1.81  50 1.89  51 1.92  57 2.36
  57  0.575  0.546  0.501-  52 1.81  55 1.98  54 2.01  56 2.36

  LATTYP: Found a triclinic cell.
 ALAT       =    12.8794565394
 B/A-ratio  =     0.9542692561
 C/A-ratio  =     1.5584737488
 COS(alpha) =     0.0005663538
 COS(beta)  =     0.0015289264
 COS(gamma) =     0.0168491939

  Lattice vectors:

 A1 = (  12.8790052908,   0.1073621865,   0.0098403239)
 A2 = (   0.1046367870,  12.2900234869,   0.0034878162)
 A3 = (   0.0153075209,   0.0055417406,  20.0722883142)

Analysis of symmetry for initial positions (statically):
 Subroutine PRICEL returns:
 Original cell was already a primitive cell.

 Routine SETGRP: Setting up the symmetry group for a
 triclinic supercell.

 Subroutine GETGRP returns: Found  1 space group operations
 (whereof  1 operations were pure point group operations)
 out of a pool of  2 trial point group operations.

The static configuration has the point symmetry C_1 .

Analysis of symmetry for dynamics (positions and initial velocities):
 Subroutine PRICEL returns:
 Original cell was already a primitive cell.

[...]

The dynamic configuration has the point symmetry C_1 .

Analysis of structural, dynamic, and magnetic symmetry:
 Subroutine PRICEL returns:
 Original cell was already a primitive cell.

 Routine SETGRP: Setting up the symmetry group for a
 triclinic supercell.

 Subroutine GETGRP returns: Found  1 space group operations
 (whereof  1 operations were pure point group operations)
 out of a pool of  2 trial point group operations.

The magnetic configuration has the point symmetry C_1 .

 Subroutine INISYM returns: Found  1 space group operations
 (whereof  1 operations are pure point group operations),
 and found     1 'primitive' translations

 KPOINTS: KPOINTS created by Atomic Simulation Env

Automatic generation of k-mesh.
Space group operators:
 irot       det(A)        alpha          n_x          n_y          n_z        tau_x        tau_y        tau_z
    1     1.000000     0.000000     1.000000     0.000000     0.000000     0.000000     0.000000     0.000000

 Subroutine IBZKPT returns following result:

 Found      2 irreducible k-points:

 Following reciprocal coordinates:
            Coordinates               Weight
  0.250000  0.250000  0.000000      2.000000
 -0.250000  0.250000  0.000000      2.000000

 Following cartesian coordinates:
            Coordinates               Weight
  0.019243  0.020178 -0.000020      2.000000
 -0.019582  0.020508  0.000009      2.000000

 Subroutine IBZKPT_HF returns following result:

 Found      4 k-points in 1st BZ
 the following      4 k-points will be used (e.g. in the exchange kernel)
 Following reciprocal coordinates:   # in IRBZ
  0.250000  0.250000  0.000000    0.25000000   1 t-inv F
 -0.250000  0.250000  0.000000    0.25000000   2 t-inv F
 -0.250000 -0.250000  0.000000    0.25000000   1 t-inv T
  0.250000 -0.250000 -0.000000    0.25000000   2 t-inv T

 SYSTEM =  unknown system
 POSCAR =   C  N Fe Mn

 Startparameter for this run:
   NWRITE =      2    write-flag & timer
   PREC   = accura    normal or accurate (medium, high low for compatibility)
   ISTART =      1    job   : 0-new  1-cont  2-samecut
   ICHARG =      0    charge: 1-file 2-atom 10-const
   ISPIN  =      2    spin polarized calculation?
   LNONCOLLINEAR =      F non collinear calculations
   LSORBIT =      F    spin-orbit coupling
   INIWAV =      1    electr: 0-lowe 1-rand  2-diag
   LASPH  =      T    aspherical Exc in radial PAW
   METAGGA=      F    non-selfconsistent MetaGGA calc.

 Electronic Relaxation 1
   ENCUT  =  500.0 eV  36.75 Ry    6.06 a.u.  23.48 22.41 36.60*2*pi/ulx,y,z
   ENINI  =  500.0     initial cutoff
   ENAUG  =  644.9 eV  augmentation charge cutoff
   NELM   =    250;   NELMIN=  2; NELMDL=  0     # of ELM steps
   EDIFF  = 0.1E-03   stopping-criterion for ELM
   LREAL  =      F    real-space projection
   NLSPLINE    = F    spline interpolate recip. space projectors
   LCOMPAT=      F    compatible to vasp.4.4
   GGA_COMPAT  = T    GGA compatible to vasp.4.4-vasp.4.6
   LMAXPAW     = -100 max onsite density
   LMAXMIX     =    2 max onsite mixed and CHGCAR
   VOSKOWN=      0    Vosko Wilk Nusair interpolation
   ROPT   =    0.00000   0.00000   0.00000   0.00000
 Ionic relaxation
   EDIFFG = -.3E-01   stopping-criterion for IOM
   NSW    =      0    number of steps for IOM
   NBLOCK =      1;   KBLOCK =      1    inner block; outer block
   IBRION =     -1    ionic relax: 0-MD 1-quasi-New 2-CG
   NFREE  =      1    steps in history (QN), initial steepest desc. (CG)
   ISIF   =      2    stress and relaxation
   IWAVPR =     10    prediction:  0-non 1-charg 2-wave 3-comb
   ISYM   =      3    0-nonsym 1-usesym 2-fastsym
   LCORR  =      T    Harris-Foulkes like correction to forces

   POTIM  = 0.5000    time-step for ionic-motion
   TEIN   =    0.0    initial temperature
   TEBEG  =    0.0;   TEEND  =   0.0 temperature during run
   SMASS  =  -3.00    Nose mass-parameter (am)
   estimated Nose-frequenzy (Omega)   =  0.10E-29 period in steps =****** mass=  -0.379E-26a.u.
   SCALEE = 1.0000    scale energy and forces
   NPACO  =    256;   APACO  = 16.0  distance and # of slots for P.C.
   PSTRESS=    0.0 pullay stress

  Mass of Ions in am
   POMASS =  12.01 14.00 55.85 54.94
  Ionic Valenz
   ZVAL   =   4.00  5.00  8.00  7.00
  Atomic Wigner-Seitz radii
  virtual crystal weights
   VCA    =   1.00  1.00  1.00  1.00
   NELECT =     241.0000    total number of electrons
   NUPDOWN=      -1.0000    fix difference up-down

 DOS related values:
   EMIN   =  10.00;   EMAX   =-10.00  energy-range for DOS
   EFERMI =   0.00
   ISMEAR =     0;   SIGMA  =   0.10  broadening in eV -4-tet -1-fermi 0-gaus

 Electronic relaxation 2 (details)
   IALGO  =     53    algorithm
   LDIAG  =      T    sub-space diagonalisation (order eigenvalues)
   LSUBROT=      F    optimize rotation matrix (better conditioning)
   TURBO    =      0    0=normal 1=particle mesh
   IRESTART =      0    0=no restart 2=restart with 2 vectors
   NREBOOT  =      0    no. of reboots
   NMIN     =      0    reboot dimension
   EREF     =   0.00    reference energy to select bands
   IMIX   =      4    mixing-type and parameters
     AMIX     =   0.40;   BMIX     =  1.00
     AMIX_MAG =   1.60;   BMIX_MAG =  1.00
     AMIN     =   0.10
     WC   =   100.;   INIMIX=   1;  MIXPRE=   1;  MAXMIX= -45

 Intra band minimization:
   WEIMIN = 0.0000     energy-eigenvalue tresh-hold
   EBREAK =  0.16E-06  absolut break condition
   DEPER  =   0.30     relativ break condition

[...]
   27        0.853   1.702   0.000   2.555
   28        0.860   1.750   0.000   2.610
   29        0.849   1.699   0.000   2.548
   30        0.861   1.755   0.000   2.616
   31        0.865   1.772   0.000   2.636
   32        0.861   1.756   0.000   2.617
   33        0.863   1.762   0.000   2.625
   34        0.866   1.769   0.000   2.635
   35        0.865   1.766   0.000   2.630
   36        0.854   1.758   0.000   2.612
   37        0.862   1.745   0.000   2.607
   38        0.867   1.773   0.000   2.640
   39        0.865   1.770   0.000   2.636
   40        0.855   1.710   0.000   2.565
   41        0.868   1.778   0.000   2.646
   42        0.872   1.798   0.000   2.669
   43        0.862   1.754   0.000   2.617
   44        0.864   1.760   0.000   2.624
   45        0.866   1.779   0.000   2.646
   46        0.867   1.783   0.000   2.650
   47        0.868   1.761   0.000   2.629
   48        0.869   1.783   0.000   2.652
   49        0.866   1.771   0.000   2.637
   50        1.227   2.681   0.000   3.908
   51        1.230   2.662   0.000   3.892
   52        1.247   2.647   0.000   3.895
   53        1.241   2.590   0.000   3.831
   54        1.231   2.677   0.000   3.908
   55        1.233   2.686   0.000   3.920
   56        0.447   0.579   6.359   7.384
   57        0.351   0.430   4.942   5.724
tot         50.499 103.154  11.301 164.953

 magnetization (x)

[...]

  FORCE on cell =-STRESS in cart. coord.  units (eV):
  Direction    XX          YY          ZZ          XY          YZ          ZX
  Alpha Z    98.68343    98.68343    98.68343
  Ewald   47165.70906 47140.21669-55535.76595   -37.02110    26.53436    73.43693
  Hartree 46567.80992 46527.82939-45979.02592    -8.06466    24.93506    68.45174
  E(xc)    -706.31448  -706.63884  -719.88135    -0.33077    -0.01480     0.00171
  Local  -96323.99519-96253.21396 98437.40893    37.25447   -51.58139  -141.79727
  n-local  -172.81040  -174.45658  -168.80690    -1.04086     0.02886     0.01839
  augment    45.18455    48.10779    51.12342     1.19948     0.03394    -0.04637
  Kinetic  3609.87545  3603.56589  4120.43858    10.45964     0.09536    -0.09529
  Fock     -323.67860  -325.62461  -304.59995    -1.19809     0.00160     0.05322
  Total     -39.53626   -41.53080    -0.42570     1.25810     0.03299     0.02307
  in kB     -19.93909   -20.94499    -0.21469     0.63449     0.01664     0.01163

 VOLUME and BASIS-vectors are now :
  energy-cutoff  :      500.00
  volume of cell :     3176.88
      direct lattice vectors                 reciprocal lattice vectors
    12.879005291  0.107362187  0.009840324     0.077651304 -0.000661103 -0.000059036
     0.104636787 12.290023487  0.003487816    -0.000678323  0.081372591 -0.000021949
     0.015307521  0.005541741 20.072288314    -0.000037950 -0.000013815  0.049819963

  length of vectors
    12.879456539 12.290469410 20.072294916     0.077654141  0.081375421  0.049819979

 FORCES acting on ions:
    Electron-Ion                     Ewald-Force                    Non-Local-Force
   0.291E+00 0.804E+01 -.114E+01   -.622E+00 -.798E+01 0.114E+01   0.356E+00 0.960E-03 -.909E-02
   0.458E+01 0.566E+01 -.817E+00   -.460E+01 -.578E+01 0.817E+00   0.994E-01 0.966E-01 -.153E-02
   -.218E+01 0.123E+01 -.779E+00   0.204E+01 -.125E+01 0.776E+00   0.434E-01 -.164E-01 0.146E-02
   0.229E+00 0.129E+02 -.674E+00   -.401E+00 -.133E+02 0.668E+00   0.949E-01 0.349E+00 0.817E-03
   0.117E+02 0.140E+02 -.474E+00   -.121E+02 -.141E+02 0.476E+00   0.411E+00 0.184E+00 -.639E-02
   0.798E+01 0.135E+01 -.570E+00   -.814E+01 -.172E+01 0.566E+00   0.200E+00 0.331E+00 0.142E-02
   0.362E+01 0.657E+01 -.950E+00   -.401E+01 -.663E+01 0.951E+00   0.330E+00 0.310E-01 -.511E-02
   0.323E+02 0.129E+02 0.124E+01   -.355E+02 -.133E+02 -.122E+01   0.327E+01 0.179E+00 -.168E-01
   0.244E+02 0.120E+02 0.109E+01   -.261E+02 -.146E+02 -.108E+01   0.184E+01 0.265E+01 -.109E-01
   0.325E+01 -.920E+01 0.546E-01   -.336E+01 0.931E+01 -.624E-01   0.886E-01 -.217E+00 0.688E-02
   0.132E+02 0.425E+01 -.884E-01   -.137E+02 -.461E+01 0.935E-01   0.402E+00 0.319E+00 -.708E-02
   -.764E+01 -.411E+02 0.848E+00   0.639E+01 0.440E+02 -.834E+00   0.118E+01 -.309E+01 -.141E-01
   -.246E+01 -.186E+01 0.222E+00   0.252E+01 0.219E+01 -.222E+00   -.251E-01 -.212E+00 -.174E-02
   -.149E+01 -.949E+01 0.135E+00   0.155E+01 0.992E+01 -.134E+00   0.658E-01 -.287E+00 -.459E-02
   0.106E+02 0.126E+02 0.551E+00   -.131E+02 -.123E+02 -.550E+00   0.250E+01 -.916E-01 0.975E-03
   0.202E+00 0.479E+01 -.429E+00   -.472E+00 -.518E+01 0.432E+00   0.315E+00 0.324E+00 -.574E-02
   0.223E+00 0.373E+01 -.123E+00   -.153E+00 -.364E+01 0.125E+00   -.451E-01 -.440E-01 -.284E-02
   -.639E+01 -.337E+01 -.197E+00   0.611E+01 0.339E+01 0.193E+00   0.181E+00 -.709E-01 -.556E-03
   -.133E+01 0.126E+01 -.729E+00   0.120E+01 -.111E+01 0.723E+00   0.105E+00 -.139E+00 0.333E-02
   -.244E+01 0.968E+00 0.337E+00   0.246E+01 -.595E+00 -.345E+00   0.881E-01 -.320E+00 0.627E-02
   -.807E+01 0.125E+02 -.941E-02   0.821E+01 -.130E+02 0.107E-01   -.743E-01 0.347E+00 -.371E-02
   0.652E+00 0.900E+01 -.338E+00   -.296E+00 -.887E+01 0.341E+00   -.414E+00 -.110E-01 -.752E-02
   -.177E+01 0.496E+01 0.594E+00   0.162E+01 -.494E+01 -.592E+00   0.423E-01 -.113E+00 -.350E-02
   -.828E+01 0.103E+02 0.170E+01   0.879E+01 -.101E+02 -.171E+01   -.347E+00 -.278E+00 0.153E-01
   -.251E+02 0.352E+02 0.157E+01   0.272E+02 -.377E+02 -.154E+01   -.238E+01 0.285E+01 -.224E-01
   -.284E+02 0.372E+02 0.806E+00   0.299E+02 -.397E+02 -.782E+00   -.161E+01 0.270E+01 -.167E-01
   0.361E+02 -.138E+02 -.408E+00   -.381E+02 0.168E+02 0.381E+00   0.232E+01 -.309E+01 0.279E-01
   -.830E+01 0.151E+01 -.461E+00   0.864E+01 -.129E+01 0.459E+00   -.299E+00 -.209E+00 -.711E-04
   -.220E+02 -.345E+01 -.798E-01   0.223E+02 0.554E+01 0.849E-01   -.795E+00 -.224E+01 -.627E-02
   0.788E+01 -.178E+01 0.218E+00   -.816E+01 0.254E+01 -.214E+00   0.177E+00 -.703E+00 -.272E-02
   0.391E+01 0.789E+00 0.385E+00   -.387E+01 -.772E+00 -.381E+00   -.212E-02 -.597E-02 -.972E-03
   0.876E+00 -.176E+00 0.172E+00   -.815E+00 0.258E+00 -.170E+00   0.367E-01 -.108E+00 -.257E-02
   0.879E+00 -.288E+01 0.573E+00   -.702E+00 0.335E+01 -.573E+00   -.161E+00 -.436E+00 0.110E-02
   0.131E+01 0.838E-01 -.354E+00   -.145E+01 -.153E+00 0.353E+00   0.744E-01 0.635E-01 0.168E-02
   0.503E+01 0.410E+01 -.670E+00   -.513E+01 -.430E+01 0.674E+00   0.129E+00 0.137E+00 -.465E-02
   -.238E+01 0.441E+01 -.121E+01   0.199E+01 -.456E+01 0.122E+01   0.421E+00 0.899E-01 -.104E-01
   0.139E+01 0.342E+01 -.516E+00   -.160E+01 -.327E+01 0.511E+00   0.161E+00 -.175E+00 0.256E-02
   0.238E+01 0.476E+01 -.539E+00   -.242E+01 -.503E+01 0.535E+00   0.282E-02 0.327E+00 0.431E-02
   -.179E+01 0.613E+01 -.594E+00   0.209E+01 -.649E+01 0.588E+00   -.134E+00 0.269E+00 0.832E-02
   -.457E+01 0.345E+02 -.171E+01   0.574E+01 -.379E+02 0.167E+01   -.135E+01 0.353E+01 0.379E-01
   -.413E+01 0.360E+01 -.415E+00   0.428E+01 -.377E+01 0.429E+00   -.158E+00 0.847E-01 -.114E-01
   -.999E+01 -.681E+01 0.893E-01   0.105E+02 0.724E+01 -.955E-01   -.527E+00 -.284E+00 0.112E-01
   -.176E+02 -.667E+01 -.107E+01   0.212E+02 0.703E+01 0.105E+01   -.362E+01 -.329E+00 0.165E-01
   -.130E+02 -.249E+02 -.180E+01   0.152E+02 0.273E+02 0.178E+01   -.200E+01 -.259E+01 0.160E-01
   -.727E+01 -.401E+01 0.863E+00   0.751E+01 0.431E+01 -.864E+00   -.244E+00 -.285E+00 0.651E-02
   0.112E+00 -.395E+01 0.122E+01   0.447E+00 0.403E+01 -.122E+01   -.482E+00 -.919E-01 0.449E-02
   0.367E+01 -.886E+01 0.735E+00   -.351E+01 0.934E+01 -.732E+00   -.100E+00 -.502E+00 0.206E-02
   -.692E+01 -.892E+01 0.881E+00   0.760E+01 0.939E+01 -.886E+00   -.668E+00 -.410E+00 0.129E-01
   -.333E+01 -.405E+01 0.770E+00   0.336E+01 0.422E+01 -.771E+00   -.576E-01 -.152E+00 0.530E-02
   -.396E+02 -.475E+02 0.316E+01   0.587E+02 0.473E+02 -.329E+01   -.186E+02 0.427E+00 0.127E+00
   -.307E+02 -.702E+01 0.480E+01   0.402E+02 0.236E+02 -.503E+01   -.922E+01 -.163E+02 0.230E+00
   -.164E+02 -.130E+02 0.315E+01   0.875E+01 0.228E+02 -.332E+01   0.734E+01 -.984E+01 0.150E+00
   -.625E+02 0.969E+02 0.124E+01   0.768E+02 -.122E+03 -.131E+01   -.134E+02 0.235E+02 0.721E-01
   0.630E+02 0.457E+02 -.326E+01   -.729E+02 -.630E+02 0.340E+01   0.930E+01 0.170E+02 -.144E+00
   0.492E+02 0.101E+02 -.640E+01   -.695E+02 -.103E+02 0.667E+01   0.198E+02 -.486E-01 -.269E+00
   -.269E+01 -.137E+03 0.104E+02   0.839E+00 0.132E+03 -.104E+02   0.113E+01 0.486E+01 -.104E+00
   0.666E+02 -.891E+02 -.113E+02   -.634E+02 0.872E+02 0.112E+02   -.286E+01 0.328E+01 0.139E+00
   0.714E+01 -.225E+02 -.231E+00   0.853E-13 -.711E-13 -.178E-14   -.693E+01 0.212E+02 0.217E+00

 POSITION                                       TOTAL-FORCE (eV/Angst)
      2.96081     12.30360     10.04425         0.046416      0.060307     -0.005325
      0.69248      1.24723     10.03949         0.089750     -0.016273     -0.001575
      1.42288      0.01980     10.03940        -0.101238     -0.037124     -0.001811
      3.56035      1.24888     10.03901        -0.073451     -0.004365     -0.005266
      2.83345      2.47308     10.03728        -0.023165      0.079802     -0.005383
      0.70233      3.70502     10.03896         0.053113     -0.028398     -0.002535
      1.40507      2.47535     10.03962        -0.041575     -0.025573     -0.004569
      3.54679      3.68971     10.03070         0.245891     -0.179616     -0.000374
      2.84994      4.93162     10.03131         0.301284      0.235391     -0.001456
      0.76814      6.17172     10.03739        -0.014008     -0.136312     -0.000508
      1.44195      4.92631     10.03643        -0.117743     -0.016436     -0.002413
      2.97829      7.33737     10.03361        -0.019702     -0.376035     -0.000897
      0.82999      8.62249     10.03756         0.038314      0.110810     -0.001886
      1.54251      7.38450     10.03656         0.123623      0.127226     -0.003798
      3.74713      8.59126     10.03743         0.142495      0.187685      0.001840
      2.98730      9.82477     10.04098         0.065415     -0.037523     -0.003808
      0.82251     11.08015     10.03993         0.026928      0.050818     -0.000951
      1.55106      9.84500     10.03970        -0.096408     -0.057522     -0.004388
      3.68889     11.06994     10.04347        -0.015589     -0.003723     -0.003146
      7.13821      0.08857     10.03953         0.108048      0.032682     -0.001337
      4.98601      1.28811     10.03714         0.058353     -0.193509     -0.002658
      5.71328      0.05330     10.03973        -0.073312      0.118472     -0.004757
      7.83155      1.35160     10.03875        -0.106419     -0.100830     -0.001707
      7.10681      2.59085     10.03448         0.148518     -0.052741      0.004860
      5.66388      2.56827     10.03137        -0.376397      0.528846      0.000223
      7.82892      3.84779     10.03901        -0.226110      0.368706      0.006031
      7.28072      9.86162     10.04805         0.511384     -0.286364      0.003326
      5.11979     11.07916     10.04377         0.017877     -0.001132     -0.001814
      5.80554      9.80278     10.04335        -0.555130     -0.274563     -0.001574
      7.95738     11.14001     10.04513        -0.093744      0.024277      0.000819
     11.42841      0.13445     10.04381         0.044481      0.014248      0.002615
      9.26878      1.37861     10.04243         0.100610     -0.033654     -0.001574
      9.99242      0.14184     10.04196         0.006778      0.009995      0.000795
     12.13942      1.36564     10.04732        -0.059604     -0.005354      0.000460
     11.42107      2.60198     10.04852         0.038072     -0.059242     -0.000774
      9.28013      3.87661     10.04857         0.051797     -0.069484     -0.003292
      9.98557      2.62501     10.04667        -0.034699     -0.037374     -0.001689
     12.15238      3.82576     10.04958        -0.045110      0.075509      0.000820
     11.46650      5.07144     10.05114         0.167894     -0.075958      0.002935
     10.03213      5.11646     10.05473        -0.252232      0.369928      0.002607
     12.22962      6.28599     10.04996        -0.016345     -0.076231      0.001680
     11.54312      7.52827     10.04983        -0.097038      0.130751      0.005799
      9.40490      8.75453     10.05294        -0.258907      0.019530      0.002348
     10.13337      7.51961     10.05617         0.047851     -0.368936      0.000377
     12.27822      8.74508     10.04634        -0.020238      0.003303      0.006598
     11.55918      9.97009     10.04503         0.058004     -0.012657      0.007846
      9.39298     11.18860     10.04486         0.057619     -0.051656      0.005361
     10.12842      9.97194     10.04617        -0.028870      0.030233      0.008315
     12.26732     11.19912     10.04645        -0.042174      0.007872      0.004607
      3.60666      6.10110     10.02781        -1.142982      0.284345      0.012838
      4.93058      3.73708     10.02468        -0.469951     -1.088392      0.025419
      7.14113      4.99608     10.03533         0.304095     -0.946042     -0.003614
      5.12716      8.60250     10.03856        -0.150761      0.924018      0.010883
      8.02251      8.70595     10.05562         0.236954      1.121885     -0.019500
      9.40803      6.34734     10.06338         1.310499     -0.219510     -0.024100
      5.42794      5.59263     10.02214        -0.196216     -0.749020     -0.004363
      7.47652      6.77321     10.06361         0.347054      0.704910      0.003439
    total drift:                               -0.000699     -0.004868     -0.000378

  FREE ENERGIE OF THE ION-ELECTRON SYSTEM (eV)
  free  energy   TOTEN  =      -601.75392755 eV

  energy  without entropy=     -601.74802975  energy(sigma->0) =     -601.75097865

 stress matrix after NEB project (eV)
    -39.53626      1.25819      0.02307
      1.25810    -41.53080      0.03314
      0.02287      0.03299     -0.42570
  FORCES: max atom, RMS     1.328975    0.449710
  FORCE total and by dimension    3.395237    1.310499
  Stress total and by dimension   57.369625   41.530802
 writing wavefunctions

 total charge

[...]

 magnetization (x)

# of ion       s       p       d       tot
    1        0.000   0.001   0.000   0.001
    2       -0.000  -0.001   0.000  -0.001
    3        0.000   0.003   0.000   0.003
    4       -0.000  -0.002   0.000  -0.002
    5        0.000  -0.001   0.000  -0.001
    6       -0.000  -0.002   0.000  -0.002
    7        0.000   0.004   0.000   0.005
    8        0.000   0.006   0.000   0.006
    9       -0.000  -0.000   0.000  -0.001
   10        0.000   0.001   0.000   0.001
   11       -0.000  -0.001   0.000  -0.001
   12        0.000  -0.001   0.000  -0.000
   13       -0.000  -0.002   0.000  -0.002
   14        0.000   0.001   0.000   0.002
   15       -0.000   0.001   0.000   0.001
   16        0.000   0.001   0.000   0.001
   17       -0.000  -0.003   0.000  -0.003
   18        0.000   0.002   0.000   0.003
   19       -0.000  -0.002   0.000  -0.002
   20        0.001   0.007   0.000   0.008
   21        0.001   0.008   0.000   0.008
   22       -0.001  -0.011   0.000  -0.011
   23       -0.001  -0.004   0.000  -0.005
   24       -0.001  -0.004   0.000  -0.005
   25       -0.001  -0.009   0.000  -0.010
   26        0.001  -0.004   0.000  -0.003
   27        0.002   0.016   0.000   0.018
   28        0.001   0.004   0.000   0.005
   29       -0.001  -0.012   0.000  -0.013
   30       -0.000  -0.004   0.000  -0.004
   31       -0.000  -0.003   0.000  -0.003
   32        0.000   0.000   0.000   0.000
   33       -0.000  -0.003   0.000  -0.003
   34        0.000   0.000   0.000   0.000
   35       -0.000  -0.003   0.000  -0.003
   36        0.000  -0.000   0.000  -0.000
   37        0.000   0.001   0.000   0.002
   38        0.000  -0.001   0.000  -0.001
   39        0.000   0.002   0.000   0.003
   40        0.000  -0.000   0.000  -0.000
   41        0.000   0.004   0.000   0.004
   42        0.000  -0.001   0.000  -0.001
   43        0.001   0.004   0.000   0.005
   44        0.001   0.005   0.000   0.006
   45        0.000  -0.001   0.000  -0.001
   46       -0.000  -0.002   0.000  -0.002
   47        0.000  -0.001   0.000  -0.001
   48       -0.000  -0.002   0.000  -0.002
   49        0.000   0.002   0.000   0.002
   50        0.004   0.046   0.000   0.050
   51        0.007   0.046   0.000   0.053
   52       -0.005  -0.073   0.000  -0.078
   53        0.013   0.051   0.000   0.064
   54       -0.006  -0.047   0.000  -0.053
   55        0.006   0.006   0.000   0.013
   56        0.003   0.024  -1.566  -1.539
   57        0.089   0.068   3.942   4.099
tot          0.116   0.119   2.376   2.611