 vasp.5.4.4.18Apr17-6-g9f103f2a35 (build Feb 25 2019 10:51:38) complex

 executed on             LinuxIFC date 2021.06.16  13:52:46

 INCAR:
 POTCAR:    PAW_PBE C 08Apr2002
 POTCAR:    PAW_PBE N 08Apr2002
 POTCAR:    PAW_PBE Co 02Aug2007
 POTCAR:    PAW_PBE Fe 06Sep2000

 POTCAR:    PAW_PBE C 08Apr2002
   VRHFIN =C: s2p2

   TITEL  = PAW_PBE C 08Apr2002
   POMASS =   12.011; ZVAL   =    4.000    mass and valenz
   ENMAX  =  400.000; ENMIN  =  300.000 eV

 POTCAR:    PAW_PBE N 08Apr2002
   VRHFIN =N: s2p3

   TITEL  = PAW_PBE N 08Apr2002
   POMASS =   14.001; ZVAL   =    5.000    mass and valenz
   ENMAX  =  400.000; ENMIN  =  300.000 eV

 POTCAR:    PAW_PBE Co 02Aug2007
   VRHFIN =Co: d8 s1

   TITEL  = PAW_PBE Co 02Aug2007
   POMASS =   58.933; ZVAL   =    9.000    mass and valenz
   ENMAX  =  267.968; ENMIN  =  200.976 eV

 POTCAR:    PAW_PBE Fe 06Sep2000
   VRHFIN =Fe:  d7 s1

   TITEL  = PAW_PBE Fe 06Sep2000
   POMASS =   55.847; ZVAL   =    8.000    mass and valenz
   ENMAX  =  267.882; ENMIN  =  200.911 eV

  PAW_PBE C 08Apr2002                   :
  PAW_PBE N 08Apr2002                   :
  PAW_PBE Co 02Aug2007                  :
  PAW_PBE Fe 06Sep2000                  :

 POSCAR:  C  N Co Fe
  positions in cartesian coordinates
 exchange correlation table for  LEXCH =        8
   RHO(1)=    0.500       N(1)  =     2000
   RHO(2)=  100.500       N(2)  =     4000

 VTST: version 3.2, (02/03/18)

 CHAIN: initializing optimizer

 OPT: Using VASP Conjugate-Gradient optimizer
 CHAIN: Read ICHAIN            0

 POSCAR:  C  N Co Fe
  positions in cartesian coordinates

 ion  position               nearest neighbor table
   1  0.222  0.001  0.500-   3 1.42  19 1.42   4 1.43
   2  0.056  0.102  0.500-   3 1.42   7 1.43  33 1.43
   3  0.110  0.001  0.500-   1 1.42   2 1.42  17 1.42
   4  0.278  0.102  0.499-  21 1.42   5 1.43   1 1.43
   5  0.225  0.204  0.499-   4 1.43   7 1.44   8 1.44
   6  0.056  0.302  0.500-   7 1.42  11 1.43  37 1.44
   7  0.112  0.203  0.500-   6 1.42   2 1.43   5 1.44
   8  0.284  0.303  0.498-  50 1.38   5 1.44   9 1.46
   9  0.227  0.406  0.499-  49 1.36  11 1.45   8 1.46
  10  0.056  0.501  0.500-  14 1.42  11 1.42  40 1.45
  11  0.113  0.402  0.499-  10 1.42   6 1.43   9 1.45
  12  0.226  0.597  0.501-  49 1.36  14 1.45  15 1.45
  13  0.055  0.700  0.500-  18 1.42  14 1.42  44 1.44
  14  0.112  0.600  0.500-  10 1.42  13 1.42  12 1.45
  15  0.282  0.700  0.503-  52 1.37  16 1.43  12 1.45
  16  0.223  0.799  0.501-  19 1.43  18 1.43  15 1.43
  17  0.055  0.900  0.500-   3 1.42  18 1.43  48 1.43
  18  0.111  0.799  0.500-  13 1.42  17 1.43  16 1.43
  19  0.277  0.900  0.501-  27 1.42   1 1.42  16 1.43
  20  0.555  0.000  0.501-  22 1.41  23 1.42  29 1.42
  21  0.389  0.101  0.499-   4 1.42  25 1.42  22 1.43
  22  0.444  0.001  0.501-  20 1.41  27 1.42  21 1.43
  23  0.610  0.101  0.499-  31 1.42  24 1.42  20 1.42
  24  0.556  0.202  0.497-  51 1.37  23 1.42  25 1.45
  25  0.443  0.203  0.497-  50 1.38  21 1.42  24 1.45
  26  0.555  0.798  0.504-  53 1.38  29 1.43  28 1.44
  27  0.389  0.900  0.502-  19 1.42  22 1.42  28 1.43
  28  0.442  0.798  0.504-  52 1.37  27 1.43  26 1.44
  29  0.609  0.899  0.502-  46 1.42  20 1.42  26 1.43
  30  0.888  0.000  0.500-  48 1.42  32 1.42  33 1.43
  31  0.721  0.101  0.500-  23 1.42  36 1.42  32 1.43
  32  0.777  0.000  0.501-  30 1.42  46 1.43  31 1.43
  33  0.943  0.101  0.500-  30 1.43  34 1.43   2 1.43
  34  0.888  0.202  0.500-  37 1.42  33 1.43  36 1.43
  35  0.716  0.302  0.498-  51 1.37  36 1.44  39 1.46
  36  0.775  0.202  0.499-  31 1.42  34 1.43  35 1.44
  37  0.943  0.302  0.500-  34 1.42  38 1.43   6 1.44
  38  0.886  0.401  0.499-  40 1.42  37 1.43  39 1.45
  39  0.772  0.405  0.499-  54 1.36  38 1.45  35 1.46
  40  0.942  0.501  0.500-  38 1.42  41 1.42  10 1.45
  41  0.885  0.600  0.500-  40 1.42  44 1.42  43 1.45
  42  0.714  0.698  0.502-  53 1.38  47 1.44  43 1.46
  43  0.771  0.596  0.500-  54 1.36  41 1.45  42 1.46
  44  0.942  0.699  0.500-  45 1.42  41 1.42  13 1.44
  45  0.887  0.799  0.500-  44 1.42  48 1.43  47 1.43
  46  0.721  0.899  0.501-  29 1.42  32 1.43  47 1.43
  47  0.774  0.798  0.501-  46 1.43  45 1.43  42 1.44
  48  0.943  0.900  0.500-  30 1.42  17 1.43  45 1.43
  49  0.280  0.502  0.500-   9 1.36  12 1.36
  50  0.393  0.302  0.495-   8 1.38  25 1.38  55 1.94
  51  0.608  0.300  0.495-  35 1.37  24 1.37  55 1.93
  52  0.390  0.701  0.505-  28 1.37  15 1.37  56 2.06
  53  0.606  0.699  0.504-  26 1.38  42 1.38  56 2.10
  54  0.718  0.500  0.499-  39 1.36  43 1.36
  55  0.502  0.407  0.476-  51 1.93  50 1.94  56 2.20
  56  0.494  0.574  0.515-  52 2.06  53 2.10  55 2.20

  LATTYP: Found a triclinic cell.
 ALAT       =    12.7423000000
 B/A-ratio  =     1.5903957684
 C/A-ratio  =     0.9655321253
 COS(alpha) =     0.0003892084
 COS(beta)  =     0.0024731290
 COS(gamma) =     0.0069323923

  Lattice vectors:

 A1 = (  12.7423000000,   0.0000000000,   0.0000000000)
 A2 = (   0.1404870089,  -0.0075400058,  20.2648116359)
 A3 = (   0.0304271538, -12.3030623748,   0.0000000000)

Analysis of symmetry for initial positions (statically):
 Subroutine PRICEL returns:
 Original cell was already a primitive cell.

 Routine SETGRP: Setting up the symmetry group for a
 triclinic supercell.

 Subroutine GETGRP returns: Found  1 space group operations
 (whereof  1 operations were pure point group operations)
 out of a pool of  2 trial point group operations.

The static configuration has the point symmetry C_1 .

Analysis of symmetry for dynamics (positions and initial velocities):
 Subroutine PRICEL returns:
 Original cell was already a primitive cell.

[...]

The dynamic configuration has the point symmetry C_1 .

Analysis of structural, dynamic, and magnetic symmetry:
 Subroutine PRICEL returns:
 Original cell was already a primitive cell.

 Routine SETGRP: Setting up the symmetry group for a
 triclinic supercell.

 Subroutine GETGRP returns: Found  1 space group operations
 (whereof  1 operations were pure point group operations)
 out of a pool of  2 trial point group operations.

The magnetic configuration has the point symmetry C_1 .

 Subroutine INISYM returns: Found  1 space group operations
 (whereof  1 operations are pure point group operations),
 and found     1 'primitive' translations

 KPOINTS: KPOINTS created by Atomic Simulation Env

Automatic generation of k-mesh.
Space group operators:
 irot       det(A)        alpha          n_x          n_y          n_z        tau_x        tau_y        tau_z
    1     1.000000     0.000001     1.000000     0.000000     0.000000     0.000000     0.000000     0.000000

 Subroutine IBZKPT returns following result:

 Found      2 irreducible k-points:

 Following reciprocal coordinates:
            Coordinates               Weight
  0.250000  0.250000  0.000000      2.000000
 -0.250000  0.250000  0.000000      2.000000

 Following cartesian coordinates:
            Coordinates               Weight
  0.019620  0.020369 -0.000128      2.000000
 -0.019620  0.020272  0.000144      2.000000

 Subroutine IBZKPT_HF returns following result:

 Found      4 k-points in 1st BZ
 the following      4 k-points will be used (e.g. in the exchange kernel)
 Following reciprocal coordinates:   # in IRBZ
  0.250000  0.250000  0.000000    0.25000000   1 t-inv F
 -0.250000  0.250000  0.000000    0.25000000   2 t-inv F
 -0.250000 -0.250000  0.000000    0.25000000   1 t-inv T
  0.250000 -0.250000 -0.000000    0.25000000   2 t-inv T

 SYSTEM =  unknown system
 POSCAR =   C  N Co Fe

 Startparameter for this run:
   NWRITE =      2    write-flag & timer
   PREC   = accura    normal or accurate (medium, high low for compatibility)
   ISTART =      1    job   : 0-new  1-cont  2-samecut
   ICHARG =      0    charge: 1-file 2-atom 10-const
   ISPIN  =      2    spin polarized calculation?
   LNONCOLLINEAR =      F non collinear calculations
   LSORBIT =      F    spin-orbit coupling
   INIWAV =      1    electr: 0-lowe 1-rand  2-diag
   LASPH  =      T    aspherical Exc in radial PAW
   METAGGA=      F    non-selfconsistent MetaGGA calc.

 Electronic Relaxation 1
   ENCUT  =  500.0 eV  36.75 Ry    6.06 a.u.  23.23 22.43 36.95*2*pi/ulx,y,z
   ENINI  =  500.0     initial cutoff
   ENAUG  =  644.9 eV  augmentation charge cutoff
   NELM   =    250;   NELMIN=  2; NELMDL=  0     # of ELM steps
   EDIFF  = 0.1E-03   stopping-criterion for ELM
   LREAL  =      F    real-space projection
   NLSPLINE    = F    spline interpolate recip. space projectors
   LCOMPAT=      F    compatible to vasp.4.4
   GGA_COMPAT  = T    GGA compatible to vasp.4.4-vasp.4.6
   LMAXPAW     = -100 max onsite density
   LMAXMIX     =    2 max onsite mixed and CHGCAR
   VOSKOWN=      0    Vosko Wilk Nusair interpolation
   ROPT   =    0.00000   0.00000   0.00000   0.00000
 Ionic relaxation
   EDIFFG = -.3E-01   stopping-criterion for IOM
   NSW    =      0    number of steps for IOM
   NBLOCK =      1;   KBLOCK =      1    inner block; outer block
   IBRION =     -1    ionic relax: 0-MD 1-quasi-New 2-CG
   NFREE  =      1    steps in history (QN), initial steepest desc. (CG)
   ISIF   =      2    stress and relaxation
   IWAVPR =     10    prediction:  0-non 1-charg 2-wave 3-comb
   ISYM   =      3    0-nonsym 1-usesym 2-fastsym
   LCORR  =      T    Harris-Foulkes like correction to forces

   POTIM  = 0.5000    time-step for ionic-motion
   TEIN   =    0.0    initial temperature
   TEBEG  =    0.0;   TEEND  =   0.0 temperature during run
   SMASS  =  -3.00    Nose mass-parameter (am)
   estimated Nose-frequenzy (Omega)   =  0.10E-29 period in steps =****** mass=  -0.371E-26a.u.
   SCALEE = 1.0000    scale energy and forces
   NPACO  =    256;   APACO  = 16.0  distance and # of slots for P.C.
   PSTRESS=    0.0 pullay stress

  Mass of Ions in am
   POMASS =  12.01 14.00 58.93 55.85
  Ionic Valenz
   ZVAL   =   4.00  5.00  9.00  8.00
  Atomic Wigner-Seitz radii
  virtual crystal weights
   VCA    =   1.00  1.00  1.00  1.00
   NELECT =     239.0000    total number of electrons
   NUPDOWN=      -1.0000    fix difference up-down

 DOS related values:
   EMIN   =  10.00;   EMAX   =-10.00  energy-range for DOS
   EFERMI =   0.00
   ISMEAR =     0;   SIGMA  =   0.10  broadening in eV -4-tet -1-fermi 0-gaus

 Electronic relaxation 2 (details)
   IALGO  =     53    algorithm
   LDIAG  =      T    sub-space diagonalisation (order eigenvalues)
   LSUBROT=      F    optimize rotation matrix (better conditioning)
   TURBO    =      0    0=normal 1=particle mesh
   IRESTART =      0    0=no restart 2=restart with 2 vectors
   NREBOOT  =      0    no. of reboots
   NMIN     =      0    reboot dimension
   EREF     =   0.00    reference energy to select bands
   IMIX   =      4    mixing-type and parameters
     AMIX     =   0.40;   BMIX     =  1.00
     AMIX_MAG =   1.60;   BMIX_MAG =  1.00
     AMIN     =   0.10
     WC   =   100.;   INIMIX=   1;  MIXPRE=   1;  MAXMIX= -45

 Intra band minimization:
   WEIMIN = 0.0000     energy-eigenvalue tresh-hold
   EBREAK =  0.16E-06  absolut break condition
   DEPER  =   0.30     relativ break condition

   TIME   =   0.20     timestep for ELM

[...]
   21        0.869   1.783   0.000   2.652
   22        0.866   1.796   0.000   2.662
   23        0.870   1.785   0.000   2.655
   24        0.861   1.748   0.000   2.609
   25        0.860   1.744   0.000   2.604
   26        0.860   1.742   0.000   2.603
   27        0.869   1.784   0.000   2.653
   28        0.861   1.745   0.000   2.606
   29        0.868   1.782   0.000   2.651
   30        0.867   1.779   0.000   2.646
   31        0.871   1.773   0.000   2.644
   32        0.864   1.786   0.000   2.650
   33        0.866   1.768   0.000   2.633
   34        0.866   1.770   0.000   2.636
   35        0.855   1.729   0.000   2.584
   36        0.864   1.767   0.000   2.631
   37        0.864   1.776   0.000   2.640
   38        0.866   1.767   0.000   2.634
   39        0.856   1.731   0.000   2.587
   40        0.868   1.765   0.000   2.633
   41        0.865   1.767   0.000   2.632
   42        0.854   1.718   0.000   2.571
   43        0.854   1.729   0.000   2.583
   44        0.865   1.778   0.000   2.643
   45        0.866   1.771   0.000   2.636
   46        0.871   1.769   0.000   2.639
   47        0.864   1.764   0.000   2.627
   48        0.866   1.770   0.000   2.636
   49        1.247   2.622   0.000   3.869
   50        1.230   2.658   0.000   3.888
   51        1.232   2.670   0.000   3.903
   52        1.230   2.679   0.000   3.908
   53        1.229   2.663   0.000   3.892
   54        1.248   2.620   0.000   3.868
   55        0.382   0.344   7.400   8.127
   56        0.427   0.350   5.925   6.702
tot         49.699 101.265  13.325 164.289

 magnetization (x)

[...]

  FORCE on cell =-STRESS in cart. coord.  units (eV):
  Direction    XX          YY          ZZ          XY          YZ          ZX
  Alpha Z    93.92626    93.92626    93.92626
  Ewald   46983.91930 47212.50969-55422.41059    -8.64864  -101.91652     4.48215
  Hartree 46620.60945 46688.42471-45970.98649    -2.31096   -55.02243     2.22723
  E(xc)    -703.97462  -704.17519  -718.70434     0.01516    -0.37778     0.02697
  Local  -96288.71833-96570.96654 98233.14063    10.36569   150.81107    -6.29194
  n-local  -142.56634  -136.15204  -131.89003    -0.64169     2.02359     0.00246
  augment   170.83251   171.55148   179.38709     0.28137     0.75577    -0.15027
  Kinetic  3566.14678  3546.87061  4057.11790     1.03977     5.24897    -0.41015
  Fock     -341.21454  -340.95019  -319.56740    -0.17847    -0.07438     0.05987
  Total     -41.03953   -38.96122     0.01303    -0.07777     1.44828    -0.05367
  in kB     -20.69709   -19.64896     0.00657    -0.03922     0.73040    -0.02707

 VOLUME and BASIS-vectors are now :
  energy-cutoff  :      500.00
  volume of cell :     3176.90
      direct lattice vectors                 reciprocal lattice vectors
    12.742300000  0.000000000  0.000000000     0.078478768  0.000194089 -0.000543986
    -0.030427154 12.303062375  0.000000000     0.000000000  0.081280576  0.000030242
     0.140487009 -0.007540006 20.264811636     0.000000000  0.000000000  0.049346622

  length of vectors
    12.742300000 12.303100000 20.265300000     0.078480893  0.081280582  0.049346622

 FORCES acting on ions:
    Electron-Ion                     Ewald-Force                    Non-Local-Force
   0.357E+01 0.218E+00 -.736E+00   -.391E+01 -.205E+00 0.732E+00   0.409E+00 -.309E-01 -.660E-02
   0.120E+01 -.193E+01 -.927E+00   -.114E+01 0.185E+01 0.927E+00   -.205E-01 0.575E-01 -.501E-02
   0.364E+01 0.303E+00 0.261E+00   -.381E+01 -.329E+00 -.252E+00   0.627E-01 0.137E-01 -.507E-02
   0.109E+02 0.453E+01 0.338E+00   -.113E+02 -.480E+01 -.363E+00   0.333E+00 0.233E+00 0.179E-01
   0.121E+02 -.458E+01 -.943E-01   -.124E+02 0.479E+01 0.112E+00   0.311E+00 -.112E+00 0.223E-01
   0.336E+01 -.190E+01 -.450E+00   -.348E+01 0.167E+01 0.458E+00   0.183E+00 0.147E+00 -.198E-01
   0.218E-01 0.972E+00 -.146E+01   -.439E+00 -.885E+00 0.151E+01   0.277E+00 -.564E-01 -.424E-01
   0.337E+02 -.170E+02 0.973E+00   -.371E+02 0.174E+02 -.974E+00   0.324E+01 -.462E+00 -.615E-01
   0.433E+01 0.229E+02 -.298E+00   -.570E+01 -.252E+02 0.181E+00   0.134E+01 0.214E+01 0.117E+00
   0.889E+01 0.502E+00 -.206E+00   -.879E+01 -.514E+00 0.199E+00   -.117E+00 -.283E-01 -.775E-02
   -.294E+01 0.495E+01 0.195E+00   0.300E+01 -.538E+01 -.133E+00   -.472E-01 0.439E+00 0.109E-02
   0.259E+01 -.221E+02 -.380E+01   -.420E+01 0.243E+02 0.372E+01   0.146E+01 -.205E+01 0.974E-01
   0.380E+01 0.183E+01 0.412E+00   -.395E+01 -.163E+01 -.393E+00   0.219E+00 -.137E+00 -.155E-01
   -.180E+01 -.532E+01 -.832E+00   0.189E+01 0.583E+01 0.884E+00   0.177E-01 -.465E+00 -.221E-01
   0.256E+02 0.154E+02 -.706E+01   -.293E+02 -.158E+02 0.685E+01   0.345E+01 0.423E+00 0.181E+00
   0.915E+01 0.383E+01 -.230E+01   -.953E+01 -.394E+01 0.233E+01   0.483E+00 0.252E-01 0.458E-02
   0.146E+01 0.143E+01 0.174E+01   -.142E+01 -.131E+01 -.174E+01   0.976E-02 -.404E-01 0.777E-02
   0.135E-01 -.747E+00 0.122E+01   -.524E+00 0.603E+00 -.121E+01   0.379E+00 0.625E-01 0.175E-02
   0.789E+01 -.200E+01 -.323E+01   -.826E+01 0.237E+01 0.324E+01   0.290E+00 -.288E+00 -.470E-02
   -.526E+01 0.389E+01 -.453E+01   0.482E+01 -.388E+01 0.457E+01   0.326E+00 0.983E-02 -.485E-01
   0.275E+01 0.105E+02 0.150E+00   -.258E+01 -.111E+02 -.478E-01   -.438E-01 0.537E+00 -.262E-01
   0.525E+01 0.222E+01 -.388E+01   -.481E+01 -.219E+01 0.392E+01   -.329E+00 -.176E-01 -.513E-01
   -.248E+01 0.109E+02 -.155E+01   0.229E+01 -.114E+02 0.164E+01   0.503E-01 0.549E+00 -.278E-01
   0.728E+01 0.351E+02 0.941E-01   -.854E+01 -.381E+02 0.857E-01   0.133E+01 0.292E+01 -.107E+00
   -.447E+01 0.330E+02 0.133E+01   0.568E+01 -.360E+02 -.119E+01   -.127E+01 0.288E+01 -.513E-01
   0.992E+01 -.174E+02 -.119E+02   -.111E+02 0.203E+02 0.117E+02   0.124E+01 -.272E+01 0.129E+00
   0.324E+00 -.351E+01 -.651E+01   -.750E-01 0.404E+01 0.653E+01   -.111E+00 -.619E+00 -.175E-01
   -.131E+02 -.197E+02 -.122E+02   0.145E+02 0.228E+02 0.120E+02   -.141E+01 -.284E+01 0.146E+00
   -.715E+00 -.281E+01 -.688E+01   0.467E+00 0.331E+01 0.689E+01   0.106E+00 -.575E+00 -.175E-01
   -.359E+01 0.122E+00 -.780E+00   0.375E+01 -.145E+00 0.787E+00   -.626E-01 0.111E-01 -.457E-02
   -.107E+02 0.566E+01 -.229E+01   0.111E+02 -.596E+01 0.226E+01   -.329E+00 0.256E+00 0.144E-01
   -.356E+01 0.176E+01 -.257E+01   0.390E+01 -.177E+01 0.257E+01   -.403E+00 -.102E-01 -.137E-01
   -.171E+01 -.816E+00 -.178E+01   0.167E+01 0.735E+00 0.178E+01   -.565E-02 0.655E-01 -.115E-01
   -.105E+01 0.887E+00 -.297E+01   0.148E+01 -.801E+00 0.301E+01   -.303E+00 -.534E-01 -.385E-01
   -.354E+02 -.164E+02 -.644E+00   0.388E+02 0.168E+02 0.655E+00   -.329E+01 -.490E+00 -.928E-01
   -.130E+02 -.319E+01 -.303E+01   0.133E+02 0.338E+01 0.305E+01   -.323E+00 -.863E-01 -.432E-02
   -.423E+01 -.210E+01 -.105E+01   0.436E+01 0.188E+01 0.106E+01   -.207E+00 0.140E+00 -.318E-01
   0.186E+01 0.483E+01 0.499E+00   -.189E+01 -.526E+01 -.421E+00   0.251E-01 0.438E+00 -.112E-01
   -.586E+01 0.201E+02 0.134E+01   0.726E+01 -.222E+02 -.143E+01   -.138E+01 0.209E+01 0.109E+00
   -.849E+01 -.143E+01 0.566E+00   0.838E+01 0.145E+01 -.587E+00   0.128E+00 -.597E-01 0.101E-01
   0.381E+01 -.536E+01 0.421E+00   -.395E+01 0.587E+01 -.358E+00   0.526E-01 -.467E+00 -.348E-01
   -.235E+02 0.178E+02 -.477E+01   0.270E+02 -.182E+02 0.457E+01   -.331E+01 0.435E+00 0.177E+00
   0.712E+00 -.249E+02 -.310E+00   0.821E+00 0.271E+02 0.254E+00   -.139E+01 -.210E+01 0.843E-01
   -.231E+01 0.175E+01 0.849E+00   0.243E+01 -.156E+01 -.832E+00   -.176E+00 -.128E+00 -.138E-01
   0.146E+01 -.653E+00 0.154E+01   -.997E+00 0.503E+00 -.153E+01   -.340E+00 0.675E-01 0.119E-02
   -.821E+01 -.627E+00 -.385E+01   0.859E+01 0.958E+00 0.386E+01   -.299E+00 -.251E+00 -.249E-02
   -.806E+01 0.601E+01 -.169E+01   0.839E+01 -.619E+01 0.173E+01   -.434E+00 0.913E-01 -.185E-02
   -.653E+00 0.261E+01 0.152E+01   0.592E+00 -.251E+01 -.152E+01   0.805E-02 -.199E-01 0.594E-02
   -.113E+03 -.280E+01 -.622E+01   0.142E+03 0.314E+01 0.561E+01   -.272E+02 -.318E+00 0.359E+00
   0.188E+02 -.576E+02 0.158E+01   -.876E+01 0.759E+02 -.230E+01   -.979E+01 -.177E+02 0.553E+00
   -.171E+02 -.560E+02 0.198E+00   0.696E+01 0.747E+02 -.960E+00   0.984E+01 -.179E+02 0.629E+00
   -.170E+02 0.733E+02 -.198E+02   0.272E+02 -.917E+02 0.197E+02   -.952E+01 0.175E+02 0.223E-01
   0.162E+02 0.803E+02 -.172E+02   -.269E+02 -.994E+02 0.170E+02   0.994E+01 0.181E+02 0.138E+00
   0.116E+03 -.768E+01 0.101E+01   -.145E+03 0.757E+01 -.183E+01   0.274E+02 0.109E+00 0.570E+00
   -.302E+01 -.140E+03 0.332E+03   0.298E+01 0.132E+03 -.325E+03   0.172E+00 0.663E+01 -.738E+01
   -.610E+01 0.460E+02 -.207E+03   0.585E+01 -.425E+02 0.207E+03   0.205E+00 -.128E+01 0.160E+01
   -.127E+01 -.504E+01 0.287E+01   0.362E-12 0.171E-12 0.114E-12   0.123E+01 0.516E+01 -.318E+01

 POSITION                                       TOTAL-FORCE (eV/Angst)
      2.89866      0.00776     10.13633         0.086316     -0.019920     -0.011138
      0.77728      1.24811     10.13005         0.038856     -0.017590     -0.005197
      1.47444      0.00590     10.13243        -0.102005     -0.010787      0.003142
      3.60451      1.24815     10.11815        -0.031250     -0.024526     -0.005902
      2.92725      2.50201     10.11011         0.100586      0.088673      0.040949
      0.77632      3.71451     10.12289         0.080606     -0.073333     -0.013456
      1.49062      2.48840     10.12383        -0.129676      0.032538      0.002740
      3.68335      3.72906     10.08522         0.035790     -0.144817     -0.067577
      2.95446      4.99383     10.11497         0.052721      0.068739      0.007039
      0.76789      6.15720     10.12960        -0.013928     -0.040666     -0.014684
      1.50216      4.94085     10.12212         0.000362      0.030697      0.063696
      2.92999      7.34103     10.15567        -0.064890     -0.060371      0.019124
      0.75084      8.60241     10.13832         0.084273      0.053040      0.002904
      1.48423      7.38158     10.14055         0.100166      0.015529      0.029476
      3.64468      8.60396     10.18651        -0.017431      0.001709     -0.019472
      2.89104      9.82388     10.16110         0.128252     -0.078716      0.035359
      0.74452     11.06766     10.13310         0.052073      0.071273      0.010999
      1.45847      9.83108     10.14069        -0.116079     -0.082138      0.009208
      3.57476     11.07438     10.15862        -0.057339      0.059618      0.008545
      7.13689     -0.00272     10.14967        -0.099222      0.022075     -0.009879
      5.02394      1.24451     10.11176         0.117812      0.042915      0.075281
      5.72650      0.00420     10.14756         0.110415      0.015766     -0.012799
      7.83993      1.23430     10.11777        -0.127316      0.034876      0.060393
      7.15463      2.47925     10.07203         0.142088      0.104361      0.066419
      5.70965      2.48889     10.06870        -0.135007      0.108317      0.084820
      7.12289      9.81032     10.21029         0.116212      0.069648     -0.032303
      4.99581     11.06969     10.17538         0.126935     -0.116624     -0.000771
      5.67967      9.81999     10.21297        -0.097992      0.083734     -0.029825
      7.80691     11.06019     10.17588        -0.131318     -0.113525     -0.000024
     11.38921      0.00063     10.13627         0.095712     -0.012278      0.002129
      9.25904      1.23555     10.12722         0.025697     -0.023847     -0.011330
      9.96511     -0.00347     10.14261        -0.085135     -0.020218     -0.014875
     12.08798      1.24404     10.13298        -0.050682     -0.013372     -0.006361
     11.37302      2.48084     10.12883         0.124049      0.034209     -0.002714
      9.18227      3.70853     10.08737        -0.066055     -0.159718     -0.087850
      9.93824      2.48681     10.11868        -0.087197      0.089265      0.018495
     12.08064      3.71080     10.12389        -0.089278     -0.079150     -0.018485
     11.34601      4.93231     10.11805         0.000007      0.037329      0.065857
      9.89715      4.97644     10.10405        -0.068595      0.093274      0.021852
     12.06439      6.15465     10.12550         0.010957     -0.044361     -0.010894
     11.33210      7.37317     10.13223        -0.083650      0.014780      0.027326
      9.15274      8.58388     10.17396         0.006478      0.025219     -0.013719
      9.88279      7.32309     10.13744         0.064579     -0.077761      0.032243
     12.05720      8.59841     10.13536        -0.072973      0.057065      0.002605
     11.34350      9.82363     10.13805         0.111271     -0.084770      0.008965
      9.22776     11.06186     10.15977         0.055213      0.064554      0.006420
      9.90876      9.80864     10.15626        -0.126279     -0.079190      0.036237
     12.05673     11.06333     10.13358        -0.052163      0.080871      0.011135
      3.62916      6.17287     10.13899        -0.583517     -0.008830     -0.213832
      5.06220      3.70743     10.03375        -0.592332     -0.815871     -0.114002
      7.80973      3.68664     10.03587         0.571916     -0.745792     -0.071879
      5.01876      8.61708     10.23155        -0.114750      0.560715     -0.038173
      7.77439      8.59814     10.22081         0.137145      0.612694     -0.028639
      9.20366      6.14383     10.11393         0.595837      0.011260     -0.196982
      6.45089      5.00957      9.65267         0.061122     -1.413022     -0.428895
      6.35084      7.06373     10.44208        -0.037385      1.776451      0.728295
    total drift:                                0.000056     -0.009504     -0.006644

  FREE ENERGIE OF THE ION-ELECTRON SYSTEM (eV)
  free  energy   TOTEN  =      -585.92360524 eV

  energy  without entropy=     -585.92342483  energy(sigma->0) =     -585.92351504

 stress matrix after NEB project (eV)
    -41.03953     -0.07781     -0.05367
     -0.07777    -38.96122      1.45753
     -0.05255      1.44828      0.01303
  FORCES: max atom, RMS     1.920310    0.421463
  FORCE total and by dimension    3.153942    1.776451
  Stress total and by dimension   56.625606   41.039527
 writing wavefunctions

 total charge

[...]

 magnetization (x)

# of ion       s       p       d       tot
    1       -0.001  -0.008   0.000  -0.008
    2       -0.000  -0.002   0.000  -0.003
    3        0.001   0.008   0.000   0.008
    4        0.001   0.019   0.000   0.021
    5       -0.001  -0.009   0.000  -0.011
    6       -0.000  -0.003   0.000  -0.003
    7        0.000   0.005   0.000   0.005
    8        0.002   0.031   0.000   0.033
    9       -0.001  -0.005   0.000  -0.006
   10        0.000   0.008   0.000   0.008
   11        0.000   0.002   0.000   0.002
   12       -0.001  -0.002   0.000  -0.002
   13       -0.000  -0.003   0.000  -0.003
   14        0.000   0.007   0.000   0.008
   15        0.001   0.019   0.000   0.020
   16       -0.000  -0.006   0.000  -0.006
   17       -0.000  -0.002   0.000  -0.002
   18        0.001   0.010   0.000   0.011
   19        0.001   0.010   0.000   0.011
   20        0.000   0.003   0.000   0.003
   21       -0.001  -0.005   0.000  -0.006
   22        0.000   0.003   0.000   0.003
   23       -0.001  -0.006   0.000  -0.006
   24        0.001   0.016   0.000   0.017
   25        0.001   0.016   0.000   0.016
   26        0.000   0.003   0.000   0.003
   27        0.000  -0.001   0.000  -0.001
   28        0.000   0.003   0.000   0.004
   29       -0.000  -0.001   0.000  -0.001
   30        0.001   0.009   0.000   0.009
   31        0.001   0.019   0.000   0.020
   32       -0.001  -0.008   0.000  -0.009
   33       -0.000  -0.003   0.000  -0.003
   34        0.000   0.006   0.000   0.006
   35        0.002   0.030   0.000   0.032
   36       -0.001  -0.010   0.000  -0.011
   37       -0.000  -0.003   0.000  -0.004
   38        0.000   0.003   0.000   0.003
   39       -0.001  -0.006   0.000  -0.007
   40        0.000   0.006   0.000   0.007
   41        0.000   0.008   0.000   0.008
   42        0.001   0.020   0.000   0.021
   43       -0.001  -0.003   0.000  -0.004
   44       -0.000  -0.004   0.000  -0.004
   45        0.001   0.011   0.000   0.012
   46        0.001   0.010   0.000   0.011
   47       -0.000  -0.006   0.000  -0.006
   48       -0.000  -0.002   0.000  -0.003
   49        0.008   0.074   0.000   0.082
   50       -0.001   0.009   0.000   0.008
   51       -0.002   0.000   0.000  -0.002
   52        0.008   0.032   0.000   0.039
   53        0.009   0.034   0.000   0.042
   54        0.007   0.072   0.000   0.079
   55        0.012   0.013  -1.743  -1.718
   56        0.106   0.087   3.591   3.784
tot          0.154   0.504   1.848   2.507