 vasp.5.4.4.18Apr17-6-g9f103f2a35 (build Feb 25 2019 10:51:38) complex

 executed on             LinuxIFC date 2021.06.15  04:12:15

 INCAR:
 POTCAR:    PAW_PBE C 08Apr2002
 POTCAR:    PAW_PBE N 08Apr2002
 POTCAR:    PAW_PBE Fe 06Sep2000
 POTCAR:    PAW_PBE Cr 06Sep2000

 POTCAR:    PAW_PBE C 08Apr2002
   VRHFIN =C: s2p2

   TITEL  = PAW_PBE C 08Apr2002
   POMASS =   12.011; ZVAL   =    4.000    mass and valenz
   ENMAX  =  400.000; ENMIN  =  300.000 eV

 POTCAR:    PAW_PBE N 08Apr2002
   VRHFIN =N: s2p3

   TITEL  = PAW_PBE N 08Apr2002
   POMASS =   14.001; ZVAL   =    5.000    mass and valenz
   ENMAX  =  400.000; ENMIN  =  300.000 eV

 POTCAR:    PAW_PBE Fe 06Sep2000
   VRHFIN =Fe:  d7 s1

   TITEL  = PAW_PBE Fe 06Sep2000
   POMASS =   55.847; ZVAL   =    8.000    mass and valenz
   ENMAX  =  267.882; ENMIN  =  200.911 eV

 POTCAR:    PAW_PBE Cr 06Sep2000
   VRHFIN =Cr : d5 s1

   TITEL  = PAW_PBE Cr 06Sep2000
   POMASS =   51.996; ZVAL   =    6.000    mass and valenz
   ENMAX  =  227.080; ENMIN  =  170.310 eV

  PAW_PBE C 08Apr2002                   :
  PAW_PBE N 08Apr2002                   :
  PAW_PBE Fe 06Sep2000                  :
  PAW_PBE Cr 06Sep2000                  :

 POSCAR:  C  N Fe Cr
  positions in cartesian coordinates
 exchange correlation table for  LEXCH =        8
   RHO(1)=    0.500       N(1)  =     2000
   RHO(2)=  100.500       N(2)  =     4000

 VTST: version 3.2, (02/03/18)

 CHAIN: initializing optimizer

 OPT: Using VASP Conjugate-Gradient optimizer
 CHAIN: Read ICHAIN            0

 POSCAR:  C  N Fe Cr
  positions in cartesian coordinates

 ion  position               nearest neighbor table
   1  0.222  0.001  0.492-  19 1.43   3 1.43   4 1.44
   2  0.057  0.101  0.487-   3 1.43  37 1.43   7 1.44
   3  0.111  0.001  0.489-   2 1.43   1 1.43  17 1.43
   4  0.278  0.102  0.492-  21 1.42   1 1.44   5 1.44
   5  0.225  0.204  0.495-   7 1.44   4 1.44   8 1.45
   6  0.057  0.301  0.491-   7 1.43  11 1.43  41 1.43
   7  0.113  0.202  0.491-   6 1.43   5 1.44   2 1.44
   8  0.282  0.305  0.504-   5 1.45  25 1.46   9 1.47
   9  0.222  0.406  0.507-  54 1.39  11 1.44   8 1.47
  10  0.054  0.501  0.497-  14 1.42  45 1.43  11 1.44
  11  0.111  0.402  0.497-   6 1.43   9 1.44  10 1.44
  12  0.218  0.602  0.511-  54 1.39  14 1.43  15 1.44
  13  0.052  0.701  0.495-  14 1.43  18 1.43  49 1.43
  14  0.108  0.602  0.500-  10 1.42  12 1.43  13 1.43
  15  0.272  0.704  0.514-  16 1.42  12 1.44  29 1.45
  16  0.219  0.801  0.500-  15 1.42  18 1.43  19 1.44
  17  0.055  0.900  0.489-  18 1.43  53 1.43   3 1.43
  18  0.109  0.801  0.493-  17 1.43  16 1.43  13 1.43
  19  0.276  0.901  0.498-   1 1.43  31 1.44  16 1.44
  20  0.555  0.998  0.489-  33 1.42  23 1.43  22 1.43
  21  0.389  0.100  0.490-   4 1.42  26 1.43  22 1.43
  22  0.444  1.000  0.491-  31 1.43  20 1.43  21 1.43
  23  0.612  0.097  0.484-  24 1.42  20 1.43  35 1.43
  24  0.557  0.196  0.488-  27 1.41  23 1.42  26 1.43
  25  0.395  0.298  0.506-  55 1.39  26 1.43   8 1.46
  26  0.446  0.198  0.493-  21 1.43  25 1.43  24 1.43
  27  0.614  0.294  0.491-  28 1.41  24 1.41  39 1.42
  28  0.562  0.388  0.511-  56 1.37  55 1.38  27 1.41
  29  0.379  0.714  0.538-  57 1.33  15 1.45  32 1.46
  30  0.556  0.802  0.511-  58 1.39  33 1.43  32 1.45
  31  0.388  0.901  0.500-  22 1.43  32 1.43  19 1.44
  32  0.443  0.804  0.516-  31 1.43  30 1.45  29 1.46
  33  0.610  0.900  0.495-  20 1.42  30 1.43  51 1.43
  34  0.889  0.999  0.484-  53 1.43  36 1.43  37 1.44
  35  0.723  0.098  0.482-  36 1.43  23 1.43  40 1.43
  36  0.778  0.998  0.484-  35 1.43  51 1.43  34 1.43
  37  0.946  0.100  0.483-  38 1.43   2 1.43  34 1.44
  38  0.891  0.199  0.483-  37 1.43  40 1.43  41 1.43
  39  0.724  0.296  0.487-  27 1.42  40 1.42  44 1.43
  40  0.779  0.198  0.482-  39 1.42  38 1.43  35 1.43
  41  0.946  0.300  0.487-  38 1.43   6 1.43  42 1.44
  42  0.889  0.399  0.490-  44 1.42  45 1.43  41 1.44
  43  0.720  0.493  0.506-  56 1.38  44 1.43  48 1.46
  44  0.778  0.397  0.492-  42 1.42  39 1.43  43 1.43
  45  0.942  0.500  0.495-  42 1.43  10 1.43  46 1.44
  46  0.884  0.599  0.498-  49 1.44  45 1.44  48 1.45
  47  0.718  0.702  0.507-  58 1.38  52 1.44  48 1.47
  48  0.772  0.598  0.505-  46 1.45  43 1.46  47 1.47
  49  0.941  0.699  0.494-  50 1.43  13 1.43  46 1.44
  50  0.887  0.799  0.491-  49 1.43  52 1.43  53 1.44
  51  0.721  0.899  0.491-  36 1.43  33 1.43  52 1.43
  52  0.776  0.799  0.495-  50 1.43  51 1.43  47 1.44
  53  0.943  0.899  0.487-  34 1.43  17 1.43  50 1.44
  54  0.270  0.505  0.519-   9 1.39  12 1.39  59 1.89
  55  0.456  0.387  0.524-  28 1.38  25 1.39  59 1.91
  56  0.617  0.482  0.523-  28 1.37  43 1.38  60 1.97
  57  0.413  0.645  0.584-  29 1.33  59 1.86  60 1.88
  58  0.613  0.709  0.522-  47 1.38  30 1.39  60 2.00
  59  0.389  0.498  0.574-  57 1.86  54 1.89  55 1.91  60 2.37
  60  0.549  0.594  0.578-  57 1.88  56 1.97  58 2.00  59 2.37

  LATTYP: Found a triclinic cell.
 ALAT       =    12.3992000000
 B/A-ratio  =     1.6073940254
 C/A-ratio  =     1.0369056068
 COS(alpha) =     0.0007382742
 COS(beta)  =     0.0094455815
 COS(gamma) =     0.0105363577

  Lattice vectors:

 A1 = (  -0.1171176535,  12.3986468655,   0.0000000000)
 A2 = (  -0.0147141002,   0.2098642031, -19.9292896178)
 A3 = ( -12.8568000000,   0.0000000000,   0.0000000000)

Analysis of symmetry for initial positions (statically):
 Subroutine PRICEL returns:
 Original cell was already a primitive cell.

 Routine SETGRP: Setting up the symmetry group for a
 triclinic supercell.

 Subroutine GETGRP returns: Found  1 space group operations
 (whereof  1 operations were pure point group operations)
 out of a pool of  2 trial point group operations.

The static configuration has the point symmetry C_1 .

Analysis of symmetry for dynamics (positions and initial velocities):
 Subroutine PRICEL returns:
 Original cell was already a primitive cell.

[...]

The dynamic configuration has the point symmetry C_1 .

Analysis of structural, dynamic, and magnetic symmetry:
 Subroutine PRICEL returns:
 Original cell was already a primitive cell.

 Routine SETGRP: Setting up the symmetry group for a
 triclinic supercell.

 Subroutine GETGRP returns: Found  1 space group operations
 (whereof  1 operations were pure point group operations)
 out of a pool of  2 trial point group operations.

The magnetic configuration has the point symmetry C_1 .

 Subroutine INISYM returns: Found  1 space group operations
 (whereof  1 operations are pure point group operations),
 and found     1 'primitive' translations

 KPOINTS: KPOINTS created by Atomic Simulation Env

Automatic generation of k-mesh.
Space group operators:
 irot       det(A)        alpha          n_x          n_y          n_z        tau_x        tau_y        tau_z
    1     1.000000     0.000000     1.000000     0.000000     0.000000     0.000000     0.000000     0.000000

 Subroutine IBZKPT returns following result:

 Found      2 irreducible k-points:

 Following reciprocal coordinates:
            Coordinates               Weight
  0.250000  0.250000  0.000000      2.000000
 -0.250000  0.250000 -0.000000      2.000000

 Following cartesian coordinates:
            Coordinates               Weight
  0.019445  0.020347  0.000200      2.000000
 -0.019445  0.019980  0.000225      2.000000

 Subroutine IBZKPT_HF returns following result:

 Found      4 k-points in 1st BZ
 the following      4 k-points will be used (e.g. in the exchange kernel)
 Following reciprocal coordinates:   # in IRBZ
  0.250000  0.250000  0.000000    0.25000000   1 t-inv F
 -0.250000  0.250000 -0.000000    0.25000000   2 t-inv F
 -0.250000 -0.250000  0.000000    0.25000000   1 t-inv T
  0.250000 -0.250000  0.000000    0.25000000   2 t-inv T

 SYSTEM =  unknown system
 POSCAR =   C  N Fe Cr

 Startparameter for this run:
   NWRITE =      2    write-flag & timer
   PREC   = accura    normal or accurate (medium, high low for compatibility)
   ISTART =      1    job   : 0-new  1-cont  2-samecut
   ICHARG =      0    charge: 1-file 2-atom 10-const
   ISPIN  =      2    spin polarized calculation?
   LNONCOLLINEAR =      F non collinear calculations
   LSORBIT =      F    spin-orbit coupling
   INIWAV =      1    electr: 0-lowe 1-rand  2-diag
   LASPH  =      T    aspherical Exc in radial PAW
   METAGGA=      F    non-selfconsistent MetaGGA calc.

 Electronic Relaxation 1
   ENCUT  =  500.0 eV  36.75 Ry    6.06 a.u.  23.44 22.61 36.34*2*pi/ulx,y,z
   ENINI  =  500.0     initial cutoff
   ENAUG  =  644.9 eV  augmentation charge cutoff
   NELM   =    250;   NELMIN=  2; NELMDL=  0     # of ELM steps
   EDIFF  = 0.1E-03   stopping-criterion for ELM
   LREAL  =      F    real-space projection
   NLSPLINE    = F    spline interpolate recip. space projectors
   LCOMPAT=      F    compatible to vasp.4.4
   GGA_COMPAT  = T    GGA compatible to vasp.4.4-vasp.4.6
   LMAXPAW     = -100 max onsite density
   LMAXMIX     =    2 max onsite mixed and CHGCAR
   VOSKOWN=      0    Vosko Wilk Nusair interpolation
   ROPT   =    0.00000   0.00000   0.00000   0.00000
 Ionic relaxation
   EDIFFG = -.3E-01   stopping-criterion for IOM
   NSW    =      0    number of steps for IOM
   NBLOCK =      1;   KBLOCK =      1    inner block; outer block
   IBRION =     -1    ionic relax: 0-MD 1-quasi-New 2-CG
   NFREE  =      1    steps in history (QN), initial steepest desc. (CG)
   ISIF   =      2    stress and relaxation
   IWAVPR =     10    prediction:  0-non 1-charg 2-wave 3-comb
   ISYM   =      3    0-nonsym 1-usesym 2-fastsym
   LCORR  =      T    Harris-Foulkes like correction to forces

   POTIM  = 0.5000    time-step for ionic-motion
   TEIN   =    0.0    initial temperature
   TEBEG  =    0.0;   TEEND  =   0.0 temperature during run
   SMASS  =  -3.00    Nose mass-parameter (am)
   estimated Nose-frequenzy (Omega)   =  0.10E-29 period in steps =****** mass=  -0.378E-26a.u.
   SCALEE = 1.0000    scale energy and forces
   NPACO  =    256;   APACO  = 16.0  distance and # of slots for P.C.
   PSTRESS=    0.0 pullay stress

  Mass of Ions in am
   POMASS =  12.01 14.00 55.85 52.00
  Ionic Valenz
   ZVAL   =   4.00  5.00  8.00  6.00
  Atomic Wigner-Seitz radii
  virtual crystal weights
   VCA    =   1.00  1.00  1.00  1.00
   NELECT =     251.0000    total number of electrons
   NUPDOWN=      -1.0000    fix difference up-down

 DOS related values:
   EMIN   =  10.00;   EMAX   =-10.00  energy-range for DOS
   EFERMI =   0.00
   ISMEAR =     0;   SIGMA  =   0.10  broadening in eV -4-tet -1-fermi 0-gaus

 Electronic relaxation 2 (details)
   IALGO  =     53    algorithm
   LDIAG  =      T    sub-space diagonalisation (order eigenvalues)
   LSUBROT=      F    optimize rotation matrix (better conditioning)
   TURBO    =      0    0=normal 1=particle mesh
   IRESTART =      0    0=no restart 2=restart with 2 vectors
   NREBOOT  =      0    no. of reboots
   NMIN     =      0    reboot dimension
   EREF     =   0.00    reference energy to select bands
   IMIX   =      4    mixing-type and parameters
     AMIX     =   0.40;   BMIX     =  1.00
     AMIX_MAG =   1.60;   BMIX_MAG =  1.00
     AMIN     =   0.10
     WC   =   100.;   INIMIX=   1;  MIXPRE=   1;  MAXMIX= -45

[...]
   46        0.859   1.729   0.000   2.588
   47        0.854   1.692   0.000   2.546
   48        0.846   1.737   0.000   2.582
   49        0.861   1.767   0.000   2.628
   50        0.865   1.756   0.000   2.621
   51        0.867   1.754   0.000   2.621
   52        0.863   1.773   0.000   2.636
   53        0.864   1.766   0.000   2.629
   54        1.229   2.666   0.000   3.894
   55        1.231   2.682   0.000   3.913
   56        1.234   2.697   0.000   3.932
   57        1.260   2.599   0.000   3.859
   58        1.231   2.675   0.000   3.906
   59        0.456   0.546   6.400   7.401
   60        0.440   0.601   4.461   5.503
tot         52.795 107.428  10.861 171.083

 magnetization (x)

[...]

  FORCE on cell =-STRESS in cart. coord.  units (eV):
  Direction    XX          YY          ZZ          XY          YZ          ZX
  Alpha Z   106.77751   106.77751   106.77751
  Ewald   48114.44145 47995.97184-55971.63572    36.07199    61.64538    59.46727
  Hartree 47612.36914 47549.03792-46523.91625    19.68531    72.34112    32.38051
  E(xc)    -730.08954  -730.10432  -743.36050     0.12413    -0.02266     0.13778
  Local  -98438.56630-98263.89353 99315.74851   -53.65498  -136.46180   -88.30401
  n-local  -175.20818  -175.75330  -168.69871    -0.24982    -0.21317    -1.95194
  augment    43.45706    44.50798    47.20602     0.21034    -1.40022     0.07317
  Kinetic  3741.46431  3751.54846  4232.20722    -1.28550     3.43299    -1.84359
  Fock     -320.41344  -320.44831  -296.26679    -1.28492     2.28273    -0.48065
  Total     -45.76800   -42.35575    -1.93871    -0.38346     1.60437    -0.52147
  in kB     -23.08201   -21.36112    -0.97774    -0.19339     0.80913    -0.26299

 VOLUME and BASIS-vectors are now :
  energy-cutoff  :      500.00
  volume of cell :     3176.87
      direct lattice vectors                 reciprocal lattice vectors
    12.856800000  0.000000000  0.000000000     0.077779852  0.000734709 -0.000049689
    -0.117117654 12.398646865  0.000000000     0.000000000  0.080653963  0.000849322
     0.014714100 -0.209864203 19.929289618     0.000000000  0.000000000  0.050177403

  length of vectors
    12.856800000 12.399200000 19.930400000     0.077783338  0.080658434  0.050177403

 FORCES acting on ions:
    Electron-Ion                     Ewald-Force                    Non-Local-Force
   0.470E+01 -.370E+01 0.326E+02   -.459E+01 0.340E+01 -.327E+02   -.409E-01 0.198E+00 0.779E-01
   -.271E+00 -.161E+01 0.404E+02   0.521E+00 0.148E+01 -.404E+02   -.246E+00 0.836E-01 0.514E-01
   0.344E+01 -.117E+01 0.369E+02   -.338E+01 0.112E+01 -.368E+02   -.106E+00 0.590E-01 -.808E-01
   0.122E+02 0.462E+00 0.309E+02   -.124E+02 -.597E+00 -.307E+02   0.236E+00 0.134E+00 -.219E+00
   0.651E+01 0.407E+01 0.235E+02   -.651E+01 -.413E+01 -.235E+02   0.257E-01 0.613E-01 0.859E-01
   0.315E+01 0.506E+01 0.358E+02   -.304E+01 -.542E+01 -.359E+02   -.952E-01 0.350E+00 0.745E-01
   0.202E+01 0.603E+01 0.312E+02   -.198E+01 -.619E+01 -.311E+02   -.512E-01 0.140E+00 -.450E-01
   0.148E+02 0.121E+02 0.870E+01   -.149E+02 -.124E+02 -.872E+01   0.130E+00 0.114E+00 0.197E-02
   0.211E+02 0.475E+02 0.189E+02   -.227E+02 -.500E+02 -.197E+02   0.151E+01 0.293E+01 0.827E+00
   0.135E+02 0.568E+01 0.252E+02   -.137E+02 -.552E+01 -.251E+02   0.210E+00 -.768E-01 -.712E-01
   0.139E+02 0.110E+02 0.288E+02   -.142E+02 -.113E+02 -.289E+02   0.298E+00 0.210E+00 0.503E-01
   0.254E+02 -.319E+02 0.116E+02   -.268E+02 0.354E+02 -.120E+02   0.133E+01 -.345E+01 0.388E+00
   0.861E+01 -.482E+01 0.312E+02   -.866E+01 0.514E+01 -.311E+02   0.309E-01 -.254E+00 -.839E-01
   0.170E+02 -.817E+01 0.273E+02   -.171E+02 0.852E+01 -.274E+02   0.104E+00 -.347E+00 0.134E+00
   0.107E+02 -.127E+02 0.674E+01   -.982E+01 0.127E+02 -.683E+01   -.115E+01 0.346E-01 -.626E-01
   0.804E+01 -.121E+02 0.333E+02   -.780E+01 0.119E+02 -.334E+02   -.180E+00 0.494E-01 0.225E+00
   0.212E+01 -.413E+01 0.427E+02   -.194E+01 0.420E+01 -.427E+02   -.194E+00 -.510E-01 0.646E-01
   0.658E+01 -.551E+01 0.404E+02   -.652E+01 0.555E+01 -.404E+02   -.118E+00 -.735E-01 0.597E-01
   0.574E+01 -.615E+01 0.249E+02   -.583E+01 0.628E+01 -.245E+02   0.176E-01 0.116E-01 -.376E+00
   -.271E-01 0.208E+01 0.574E+02   -.320E+00 -.210E+01 -.572E+02   0.286E+00 0.519E-01 -.143E+00
   0.545E+01 0.696E+01 0.525E+02   -.595E+01 -.734E+01 -.526E+02   0.459E+00 0.403E+00 0.150E+00
   0.326E+01 -.692E+00 0.537E+02   -.343E+01 0.447E+00 -.538E+02   0.213E+00 0.236E+00 0.112E+00
   -.500E+01 0.676E+01 0.726E+02   0.512E+01 -.714E+01 -.727E+02   -.788E-01 0.346E+00 0.176E+00
   -.258E+00 0.147E+02 0.695E+02   0.139E+00 -.153E+02 -.693E+02   0.957E-01 0.564E+00 -.138E+00
   0.360E+02 0.348E+02 0.209E+02   -.380E+02 -.375E+02 -.221E+02   0.218E+01 0.287E+01 0.124E+01
   0.771E+01 0.143E+02 0.561E+02   -.799E+01 -.149E+02 -.563E+02   0.278E+00 0.436E+00 0.176E+00
   -.126E+02 0.130E+02 0.779E+02   0.131E+02 -.139E+02 -.786E+02   -.380E+00 0.693E+00 0.696E+00
   -.181E+02 0.185E+02 0.186E+02   0.198E+02 -.215E+02 -.202E+02   -.181E+01 0.305E+01 0.179E+01
   0.180E+02 -.601E+02 -.691E+02   -.181E+02 0.603E+02 0.686E+02   0.580E+00 -.980E+00 0.132E+01
   0.172E+02 -.234E+02 -.299E+01   -.195E+02 0.260E+02 0.251E+01   0.226E+01 -.271E+01 0.464E+00
   0.448E+01 -.470E+01 0.299E+02   -.446E+01 0.417E+01 -.300E+02   0.962E-01 0.408E+00 0.189E+00
   -.604E+01 -.974E+01 -.119E+02   0.572E+01 0.898E+01 0.121E+02   0.411E+00 0.103E+01 -.239E+00
   -.269E+01 -.683E+01 0.446E+02   0.247E+01 0.691E+01 -.448E+02   0.267E+00 -.375E-01 0.294E+00
   -.375E+01 -.203E+01 0.506E+02   0.387E+01 0.202E+01 -.505E+02   -.151E+00 0.302E-01 -.659E-02
   -.617E+01 0.327E+01 0.662E+02   0.619E+01 -.335E+01 -.661E+02   -.480E-01 0.934E-01 -.100E+00
   -.626E+01 0.141E+01 0.566E+02   0.646E+01 -.136E+01 -.567E+02   -.157E+00 -.213E-01 0.105E+00
   -.272E+01 0.293E+01 0.506E+02   0.296E+01 -.302E+01 -.506E+02   -.224E+00 0.611E-01 0.530E-01
   -.567E+01 0.210E+01 0.554E+02   0.587E+01 -.217E+01 -.553E+02   -.224E+00 0.940E-01 -.171E-01
   -.146E+02 0.569E+01 0.656E+02   0.151E+02 -.585E+01 -.654E+02   -.497E+00 0.199E+00 -.166E+00
   -.926E+01 0.619E+01 0.681E+02   0.952E+01 -.644E+01 -.682E+02   -.225E+00 0.217E+00 0.140E+00
   -.303E+01 0.199E+01 0.477E+02   0.318E+01 -.210E+01 -.478E+02   -.125E+00 0.608E-01 0.718E-01
   -.718E+01 0.259E+01 0.442E+02   0.759E+01 -.244E+01 -.442E+02   -.390E+00 -.949E-01 0.880E-01
   -.411E+02 -.202E+02 0.142E+02   0.445E+02 0.206E+02 -.151E+02   -.361E+01 -.541E+00 0.978E+00
   -.161E+02 -.151E+01 0.527E+02   0.166E+02 0.146E+01 -.529E+02   -.405E+00 -.632E-02 0.240E+00
   0.143E+01 -.442E+01 0.260E+02   -.153E+01 0.458E+01 -.259E+02   0.810E-01 -.201E+00 -.993E-01
   0.817E+00 -.101E+01 0.165E+02   -.911E+00 0.116E+01 -.165E+02   0.584E-01 -.115E+00 0.218E-01
   -.389E+02 0.122E+02 0.663E+01   0.418E+02 -.121E+02 -.750E+01   -.323E+01 0.147E+00 0.929E+00
   -.689E+01 -.614E+01 -.267E+01   0.707E+01 0.628E+01 0.281E+01   -.104E-01 -.197E+00 -.157E+00
   0.137E+01 -.387E+00 0.269E+02   -.124E+01 0.369E+00 -.268E+02   -.124E+00 0.235E-01 -.617E-01
   -.375E+01 -.290E+01 0.380E+02   0.405E+01 0.278E+01 -.381E+02   -.306E+00 0.104E+00 0.934E-01
   -.793E+01 -.501E+01 0.430E+02   0.794E+01 0.513E+01 -.427E+02   -.944E-01 -.115E+00 -.181E+00
   -.122E+02 -.189E+01 0.361E+02   0.127E+02 0.191E+01 -.363E+02   -.355E+00 -.222E-01 0.190E+00
   -.498E+00 0.162E+00 0.444E+02   0.702E+00 -.195E+00 -.444E+02   -.160E+00 0.108E-01 0.197E-01
   -.270E+01 0.187E+01 0.164E+01   0.223E+02 -.677E+00 0.116E+01   -.187E+02 -.142E+01 -.295E+01
   0.133E+02 0.188E+01 -.649E+02   -.224E+02 0.143E+02 0.724E+02   0.870E+01 -.159E+02 -.763E+01
   -.586E+01 -.505E+02 -.759E+02   -.407E+01 0.675E+02 0.838E+02   0.970E+01 -.163E+02 -.778E+01
   0.106E+02 -.713E+02 -.473E+03   -.681E+01 0.651E+02 0.492E+03   -.408E+01 0.699E+01 -.182E+02
   0.115E+02 0.336E+02 -.604E+02   -.223E+02 -.514E+02 0.664E+02   0.105E+02 0.169E+02 -.601E+01
   0.424E+02 0.107E+03 -.624E+03   -.435E+02 -.103E+03 0.619E+03   0.503E+00 -.399E+01 0.522E+01
   -.119E+03 -.126E+02 -.483E+03   0.117E+03 0.138E+02 0.480E+03   0.255E+01 -.795E+00 0.336E+01
   -.593E+01 0.891E+01 0.276E+02   -.313E-12 0.128E-12 -.853E-12   0.546E+01 -.828E+01 -.246E+02

 POSITION                                       TOTAL-FORCE (eV/Angst)
      2.86372     -0.09025      9.80550         0.064358     -0.102384      0.030185
      0.73143      1.14957      9.69892        -0.010640     -0.046321      0.027166
      1.43430     -0.09458      9.73753        -0.051482      0.013482      0.015719
      3.57118      1.16239      9.81358         0.021049      0.003718     -0.002116
      2.87601      2.42678      9.86602         0.019980      0.005612      0.024316
      0.70579      3.62899      9.78195         0.006175      0.005723      0.025621
      1.43874      2.40218      9.77624        -0.017009     -0.003800      0.004794
      3.59494      3.67511     10.03991        -0.040284     -0.179253     -0.013564
      2.81620      4.92434     10.09663        -0.003987      0.617813      0.039834
      0.63701      6.11034      9.90690         0.052751      0.085285      0.018672
      1.39108      4.88179      9.91108        -0.012692     -0.094375     -0.029072
      2.73948      7.35691     10.18879         0.057825     -0.212018      0.049785
      0.59924      8.58191      9.87063        -0.015540      0.055702      0.009631
      1.32725      7.35433      9.96722        -0.024000     -0.018239      0.023930
      3.42649      8.61801     10.25151        -0.351831      0.045800     -0.153454
      2.73245      9.82867      9.96703         0.046815     -0.193123      0.124528
      0.60244     11.06175      9.73644        -0.026485      0.021639      0.030953
      1.30919      9.82390      9.83273        -0.061150     -0.036029      0.027832
      3.45643     11.07250      9.91615        -0.080766      0.145556     -0.015821
      7.02289     12.27455      9.73893        -0.044328      0.038074      0.051484
      4.99218      1.13103      9.77403        -0.020864      0.049171      0.061272
      5.59592     12.29111      9.79004         0.049873     -0.001167      0.047162
      7.86008      1.10190      9.64131         0.031490     -0.011856      0.052113
      7.14288      2.32554      9.71949        -0.012869      0.079535      0.087795
      5.05312      3.59324     10.08541         0.371130      0.351210      0.148035
      5.71757      2.35679      9.81936         0.016023     -0.129473      0.024564
      7.86901      3.53676      9.79237         0.078984     -0.104436      0.058476
      7.18352      4.70573     10.18469        -0.173037      0.244358      0.323066
      4.79339      8.73780     10.73030         0.462387     -0.886474      0.973675
      7.05835      9.84016     10.18870         0.122878     -0.200770      0.012523
      4.89415     11.06172      9.96675         0.126146     -0.096527      0.110524
      5.61178      9.86255     10.27873         0.099340      0.329620     -0.129324
      7.74469     11.05240      9.85997         0.063226      0.036887      0.048748
     11.32164     12.28724      9.64131        -0.033942      0.017731      0.031286
      9.28836      1.11084      9.60480        -0.029301      0.017691      0.056616
      9.88952     12.27678      9.64463         0.038375      0.027454      0.024745
     12.15662      1.13423      9.63345         0.007928     -0.021347      0.030006
     11.43556      2.36722      9.62668        -0.038020      0.032133      0.045522
      9.28644      3.57015      9.70953        -0.049556      0.047172      0.064484
     10.00566      2.34895      9.60806         0.024496     -0.021156      0.044612
     12.13076      3.61709      9.70215         0.013410     -0.051300      0.025036
     11.39265      4.84606      9.76888        -0.000821      0.054769      0.045681
      9.21269      6.00503     10.08683        -0.413149     -0.184851      0.133770
      9.96892      4.82056      9.81185         0.072097     -0.060815      0.037191
     12.06252      6.10066      9.85900        -0.013789     -0.060321      0.001048
     11.30022      7.32619      9.91892        -0.026608      0.032995      0.013624
      9.15161      8.59771     10.10532        -0.533216      0.262738      0.110386
      9.85748      7.31061     10.06620         0.174139     -0.077982     -0.022648
     12.02233      8.56622      9.85141         0.007410      0.010483      0.003098
     11.31421      9.80559      9.78546        -0.027459     -0.007617      0.032401
      9.17382     11.04586      9.77698        -0.084481     -0.000580      0.032353
      9.88670      9.80689      9.86077         0.066166     -0.000670      0.013897
     12.02901     11.04889      9.70260         0.037185     -0.017540      0.022310
      3.41610      6.15276     10.34265        -0.798705     -0.358974     -0.409680
      5.83116      4.68615     10.44082         0.311813     -1.019130     -0.757751
      7.88123      5.86416     10.42441         0.630173     -0.742480     -0.577628
      5.23983      7.87946     11.63994        -0.707538      1.488423     -0.876107
      7.80375      8.68736     10.39318         0.629306      0.634940     -0.482630
      4.95120      6.05496     11.43984        -0.277179     -0.048020      0.160570
      7.00329      7.24257     11.52410         0.277800      0.233314      0.088759
    total drift:                               -0.000875     -0.006016      0.008497

  FREE ENERGIE OF THE ION-ELECTRON SYSTEM (eV)
  free  energy   TOTEN  =      -632.09116305 eV

  energy  without entropy=     -632.09116304  energy(sigma->0) =     -632.09116304

 stress matrix after NEB project (eV)
    -45.76800     -0.38365     -0.52147
     -0.38346    -42.35575      1.60492
     -0.51949      1.60437     -1.93871
  FORCES: max atom, RMS     1.866434    0.463198
  FORCE total and by dimension    3.587918    1.488423
  Stress total and by dimension   62.437685   45.768004
 writing wavefunctions

 total charge

[...]

 magnetization (x)

# of ion       s       p       d       tot
    1        0.000   0.004   0.000   0.004
    2        0.000   0.002   0.000   0.002
    3       -0.000  -0.000   0.000  -0.000
    4       -0.000  -0.001   0.000  -0.002
    5        0.000   0.002   0.000   0.002
    6        0.000   0.003   0.000   0.004
    7       -0.000  -0.001   0.000  -0.001
    8       -0.000   0.001   0.000   0.001
    9        0.001   0.001   0.000   0.001
   10        0.000   0.002   0.000   0.002
   11        0.001   0.001   0.000   0.001
   12       -0.000   0.008   0.000   0.007
   13        0.000   0.007   0.000   0.008
   14       -0.000  -0.003   0.000  -0.003
   15       -0.002  -0.007   0.000  -0.009
   16        0.001   0.007   0.000   0.007
   17        0.000   0.002   0.000   0.002
   18       -0.000  -0.001   0.000  -0.001
   19       -0.000  -0.004   0.000  -0.004
   20        0.000   0.005   0.000   0.005
   21        0.000   0.003   0.000   0.003
   22       -0.000  -0.003   0.000  -0.003
   23       -0.000  -0.002   0.000  -0.002
   24        0.000   0.003   0.000   0.003
   25       -0.001   0.002   0.000   0.002
   26       -0.000  -0.002   0.000  -0.003
   27       -0.001  -0.006   0.000  -0.007
   28        0.004   0.019   0.000   0.023
   29        0.006   0.046   0.000   0.052
   30        0.003   0.018   0.000   0.021
   31        0.001   0.004   0.000   0.004
   32       -0.001  -0.010   0.000  -0.011
   33       -0.000  -0.004   0.000  -0.004
   34        0.000   0.005   0.000   0.005
   35        0.000   0.006   0.000   0.006
   36       -0.000  -0.003   0.000  -0.003
   37       -0.000  -0.001   0.000  -0.001
   38        0.000   0.004   0.000   0.005
   39        0.001   0.010   0.000   0.011
   40       -0.000  -0.003   0.000  -0.004
   41       -0.000  -0.002   0.000  -0.002
   42        0.000   0.004   0.000   0.004
   43        0.003   0.016   0.000   0.019
   44       -0.000  -0.004   0.000  -0.005
   45       -0.000  -0.000   0.000  -0.001
   46        0.000   0.004   0.000   0.004
   47        0.002   0.011   0.000   0.013
   48        0.000   0.001   0.000   0.002
   49       -0.000   0.001   0.000   0.001
   50        0.000   0.003   0.000   0.004
   51        0.000   0.005   0.000   0.006
   52        0.000   0.001   0.000   0.001
   53       -0.000  -0.002   0.000  -0.002
   54        0.007   0.038   0.000   0.045
   55        0.000  -0.004   0.000  -0.004
   56       -0.007  -0.044   0.000  -0.051
   57       -0.006  -0.086   0.000  -0.092
   58       -0.003  -0.025   0.000  -0.028
   59        0.014   0.040  -1.456  -1.401
   60        0.092   0.117   3.566   3.776
tot          0.115   0.188   2.110   2.414