 vasp.5.4.4.18Apr17-6-g9f103f2a35 (build Feb 25 2019 10:51:38) complex

 executed on             LinuxIFC date 2021.08.09  03:14:00

 INCAR:
 POTCAR:    PAW_PBE C 08Apr2002
 POTCAR:    PAW_PBE N 08Apr2002
 POTCAR:    PAW_PBE Fe 06Sep2000
 POTCAR:    PAW_PBE Cr 06Sep2000

 POTCAR:    PAW_PBE C 08Apr2002
   VRHFIN =C: s2p2

   TITEL  = PAW_PBE C 08Apr2002
   POMASS =   12.011; ZVAL   =    4.000    mass and valenz
   ENMAX  =  400.000; ENMIN  =  300.000 eV

 POTCAR:    PAW_PBE N 08Apr2002
   VRHFIN =N: s2p3

   TITEL  = PAW_PBE N 08Apr2002
   POMASS =   14.001; ZVAL   =    5.000    mass and valenz
   ENMAX  =  400.000; ENMIN  =  300.000 eV

 POTCAR:    PAW_PBE Fe 06Sep2000
   VRHFIN =Fe:  d7 s1

   TITEL  = PAW_PBE Fe 06Sep2000
   POMASS =   55.847; ZVAL   =    8.000    mass and valenz
   ENMAX  =  267.882; ENMIN  =  200.911 eV

 POTCAR:    PAW_PBE Cr 06Sep2000
   VRHFIN =Cr : d5 s1

   TITEL  = PAW_PBE Cr 06Sep2000
   POMASS =   51.996; ZVAL   =    6.000    mass and valenz
   ENMAX  =  227.080; ENMIN  =  170.310 eV

  PAW_PBE C 08Apr2002                   :
  PAW_PBE N 08Apr2002                   :
  PAW_PBE Fe 06Sep2000                  :
  PAW_PBE Cr 06Sep2000                  :

 POSCAR:  C  N Fe Cr
  positions in cartesian coordinates
 exchange correlation table for  LEXCH =        8
   RHO(1)=    0.500       N(1)  =     2000
   RHO(2)=  100.500       N(2)  =     4000

 VTST: version 3.2, (02/03/18)

 CHAIN: initializing optimizer

 OPT: Using VASP Conjugate-Gradient optimizer
 CHAIN: Read ICHAIN            0

 POSCAR:  C  N Fe Cr
  positions in cartesian coordinates

 ion  position               nearest neighbor table
   1  0.225  1.000  0.500-  18 1.46   4 1.46   3 1.47
   2  0.057  0.099  0.500-   7 1.43   3 1.43  33 1.45
   3  0.113  1.000  0.500-   2 1.43  16 1.43   1 1.47
   4  0.280  0.103  0.500-   1 1.46   5 1.46  20 1.47
   5  0.221  0.204  0.500-  53 1.39   7 1.45   4 1.46
   6  0.050  0.298  0.500-  10 1.41  37 1.43   7 1.43
   7  0.110  0.200  0.500-   2 1.43   6 1.43   5 1.45
   8  0.208  0.398  0.500-  53 1.38  10 1.40  11 1.41
   9  0.048  0.499  0.500-  41 1.41  10 1.42  14 1.42
  10  0.101  0.399  0.500-   8 1.40   6 1.41   9 1.42
  11  0.260  0.498  0.499-  55 1.34   8 1.41  12 1.43
  12  0.208  0.600  0.500-  54 1.38  14 1.40  11 1.43
  13  0.051  0.701  0.500-  14 1.41  45 1.43  17 1.43
  14  0.101  0.600  0.500-  12 1.40  13 1.41   9 1.42
  15  0.221  0.795  0.500-  54 1.39  17 1.45  18 1.47
  16  0.057  0.901  0.500-  17 1.43   3 1.43  49 1.45
  17  0.110  0.799  0.500-  16 1.43  13 1.43  15 1.45
  18  0.280  0.897  0.500-   1 1.46  15 1.47  28 1.47
  19  0.557  0.000  0.500-  22 1.43  29 1.43  21 1.45
  20  0.392  0.104  0.500-  50 1.43  21 1.46   4 1.47
  21  0.446  0.001  0.500-  28 1.45  19 1.45  20 1.46
  22  0.614  0.099  0.500-  23 1.42  19 1.43  31 1.44
  23  0.560  0.199  0.500-  22 1.42  50 1.43  24 1.46
  24  0.616  0.301  0.500-  51 1.42  35 1.43  23 1.46
  25  0.613  0.502  0.499-  56 1.39  39 1.44  51 1.44
  26  0.617  0.699  0.500-  56 1.37  43 1.42  27 1.47
  27  0.560  0.801  0.500-  52 1.42  29 1.42  26 1.47
  28  0.393  0.898  0.500-  52 1.43  21 1.45  18 1.47
  29  0.615  0.901  0.500-  27 1.42  19 1.43  47 1.44
  30  0.891  0.000  0.500-  33 1.42  49 1.42  32 1.45
  31  0.724  0.099  0.500-  32 1.42  36 1.42  22 1.44
  32  0.780  0.000  0.500-  47 1.42  31 1.42  30 1.45
  33  0.946  0.099  0.500-  30 1.42  34 1.43   2 1.45
  34  0.889  0.198  0.500-  37 1.42  33 1.43  36 1.43
  35  0.725  0.299  0.500-  40 1.42  24 1.43  36 1.43
  36  0.779  0.199  0.500-  31 1.42  35 1.43  34 1.43
  37  0.942  0.299  0.500-  34 1.42   6 1.43  38 1.43
  38  0.887  0.399  0.500-  41 1.42  40 1.43  37 1.43
  39  0.723  0.500  0.500-  44 1.43  40 1.43  25 1.44
  40  0.778  0.400  0.500-  35 1.42  38 1.43  39 1.43
  41  0.940  0.500  0.500-   9 1.41  42 1.42  38 1.42
  42  0.887  0.601  0.500-  41 1.42  44 1.43  45 1.43
  43  0.726  0.701  0.500-  44 1.42  26 1.42  48 1.43
  44  0.779  0.600  0.500-  43 1.42  42 1.43  39 1.43
  45  0.942  0.701  0.500-  46 1.42  13 1.43  42 1.43
  46  0.889  0.802  0.500-  45 1.42  49 1.43  48 1.43
  47  0.725  0.901  0.500-  32 1.42  48 1.42  29 1.44
  48  0.780  0.802  0.500-  47 1.42  43 1.43  46 1.43
  49  0.946  0.901  0.500-  30 1.42  46 1.43  16 1.45
  50  0.451  0.202  0.499-  23 1.43  20 1.43  57 1.94
  51  0.559  0.400  0.499-  24 1.42  25 1.44  57 1.95
  52  0.452  0.800  0.500-  27 1.42  28 1.43  58 2.00
  53  0.268  0.305  0.499-   8 1.38   5 1.39  57 2.04
  54  0.267  0.694  0.500-  12 1.38  15 1.39  58 2.04
  55  0.362  0.496  0.498-  11 1.34  57 1.86  58 1.94
  56  0.565  0.603  0.499-  26 1.37  25 1.39  58 2.02
  57  0.416  0.356  0.499-  55 1.86  50 1.94  51 1.95  53 2.04
  58  0.415  0.643  0.499-  55 1.94  52 2.00  56 2.02  54 2.04

  LATTYP: Found a triclinic cell.
 ALAT       =    13.1147399389
 B/A-ratio  =     1.8046248686
 C/A-ratio  =     0.9379178522
 COS(alpha) =     0.0009124578
 COS(beta)  =     0.0016389727
 COS(gamma) =     0.5546469135

  Lattice vectors:

 A1 = ( -13.1147271703,  -0.0181853769,  -0.0020510142)
 A2 = ( -13.1238370650,  -0.0195863102, -19.6951822185)
 A3 = (  -0.0031040048, -12.3005482974,   0.0008136345)

Analysis of symmetry for initial positions (statically):
 Subroutine PRICEL returns:
 Original cell was already a primitive cell.

 Routine SETGRP: Setting up the symmetry group for a
 triclinic supercell.

 Subroutine GETGRP returns: Found  1 space group operations
 (whereof  1 operations were pure point group operations)
 out of a pool of  2 trial point group operations.

The static configuration has the point symmetry C_1 .

Analysis of symmetry for dynamics (positions and initial velocities):
 Subroutine PRICEL returns:
 Original cell was already a primitive cell.

[...]

The dynamic configuration has the point symmetry C_1 .

Analysis of structural, dynamic, and magnetic symmetry:
 Subroutine PRICEL returns:
 Original cell was already a primitive cell.

 Routine SETGRP: Setting up the symmetry group for a
 triclinic supercell.

 Subroutine GETGRP returns: Found  1 space group operations
 (whereof  1 operations were pure point group operations)
 out of a pool of  2 trial point group operations.

The magnetic configuration has the point symmetry C_1 .

 Subroutine INISYM returns: Found  1 space group operations
 (whereof  1 operations are pure point group operations),
 and found     1 'primitive' translations

 KPOINTS: KPOINTS created by Atomic Simulation Env

Automatic generation of k-mesh.
Space group operators:
 irot       det(A)        alpha          n_x          n_y          n_z        tau_x        tau_y        tau_z
    1     1.000000     0.000001     1.000000     0.000000     0.000000     0.000000     0.000000     0.000000

 Subroutine IBZKPT returns following result:

 Found      2 irreducible k-points:

 Following reciprocal coordinates:
            Coordinates               Weight
  0.250000  0.250000  0.000000      2.000000
 -0.250000  0.250000 -0.000000      2.000000

 Following cartesian coordinates:
            Coordinates               Weight
  0.019034  0.020319 -0.000010      2.000000
 -0.019091  0.020329  0.000007      2.000000

 Subroutine IBZKPT_HF returns following result:

 Found      4 k-points in 1st BZ
 the following      4 k-points will be used (e.g. in the exchange kernel)
 Following reciprocal coordinates:   # in IRBZ
  0.250000  0.250000  0.000000    0.25000000   1 t-inv F
 -0.250000  0.250000 -0.000000    0.25000000   2 t-inv F
 -0.250000 -0.250000 -0.000000    0.25000000   1 t-inv T
  0.250000 -0.250000  0.000000    0.25000000   2 t-inv T

 SYSTEM =  unknown system
 POSCAR =   C  N Fe Cr

 Startparameter for this run:
   NWRITE =      2    write-flag & timer
   PREC   = accura    normal or accurate (medium, high low for compatibility)
   ISTART =      1    job   : 0-new  1-cont  2-samecut
   ICHARG =      0    charge: 1-file 2-atom 10-const
   ISPIN  =      2    spin polarized calculation?
   LNONCOLLINEAR =      F non collinear calculations
   LSORBIT =      F    spin-orbit coupling
   INIWAV =      1    electr: 0-lowe 1-rand  2-diag
   LASPH  =      T    aspherical Exc in radial PAW
   METAGGA=      F    non-selfconsistent MetaGGA calc.

 Electronic Relaxation 1
   ENCUT  =  500.0 eV  36.75 Ry    6.06 a.u.  23.91 22.43 35.91*2*pi/ulx,y,z
   ENINI  =  500.0     initial cutoff
   ENAUG  =  644.9 eV  augmentation charge cutoff
   NELM   =    250;   NELMIN=  2; NELMDL=  0     # of ELM steps
   EDIFF  = 0.1E-03   stopping-criterion for ELM
   LREAL  =      F    real-space projection
   NLSPLINE    = F    spline interpolate recip. space projectors
   LCOMPAT=      F    compatible to vasp.4.4
   GGA_COMPAT  = T    GGA compatible to vasp.4.4-vasp.4.6
   LMAXPAW     = -100 max onsite density
   LMAXMIX     =    2 max onsite mixed and CHGCAR
   VOSKOWN=      0    Vosko Wilk Nusair interpolation
   ROPT   =    0.00000   0.00000   0.00000   0.00000
 Ionic relaxation
   EDIFFG = -.3E-01   stopping-criterion for IOM
   NSW    =      0    number of steps for IOM
   NBLOCK =      1;   KBLOCK =      1    inner block; outer block
   IBRION =     -1    ionic relax: 0-MD 1-quasi-New 2-CG
   NFREE  =      1    steps in history (QN), initial steepest desc. (CG)
   ISIF   =      2    stress and relaxation
   IWAVPR =     10    prediction:  0-non 1-charg 2-wave 3-comb
   ISYM   =      3    0-nonsym 1-usesym 2-fastsym
   LCORR  =      T    Harris-Foulkes like correction to forces

   POTIM  = 0.5000    time-step for ionic-motion
   TEIN   =    0.0    initial temperature
   TEBEG  =    0.0;   TEEND  =   0.0 temperature during run
   SMASS  =  -3.00    Nose mass-parameter (am)
   estimated Nose-frequenzy (Omega)   =  0.10E-29 period in steps =****** mass=  -0.393E-26a.u.
   SCALEE = 1.0000    scale energy and forces
   NPACO  =    256;   APACO  = 16.0  distance and # of slots for P.C.
   PSTRESS=    0.0 pullay stress

  Mass of Ions in am
   POMASS =  12.01 14.00 55.85 52.00
  Ionic Valenz
   ZVAL   =   4.00  5.00  8.00  6.00
  Atomic Wigner-Seitz radii
  virtual crystal weights
   VCA    =   1.00  1.00  1.00  1.00
   NELECT =     242.0000    total number of electrons
   NUPDOWN=      -1.0000    fix difference up-down

 DOS related values:
   EMIN   =  10.00;   EMAX   =-10.00  energy-range for DOS
   EFERMI =   0.00
   ISMEAR =     0;   SIGMA  =   0.10  broadening in eV -4-tet -1-fermi 0-gaus

 Electronic relaxation 2 (details)
   IALGO  =     53    algorithm
   LDIAG  =      T    sub-space diagonalisation (order eigenvalues)
   LSUBROT=      F    optimize rotation matrix (better conditioning)
   TURBO    =      0    0=normal 1=particle mesh
   IRESTART =      0    0=no restart 2=restart with 2 vectors
   NREBOOT  =      0    no. of reboots
   NMIN     =      0    reboot dimension
   EREF     =   0.00    reference energy to select bands
   IMIX   =      4    mixing-type and parameters
     AMIX     =   0.40;   BMIX     =  1.00
     AMIX_MAG =   1.60;   BMIX_MAG =  1.00
     AMIN     =   0.10
     WC   =   100.;   INIMIX=   1;  MIXPRE=   1;  MAXMIX= -45

 Intra band minimization:
   WEIMIN = 0.0000     energy-eigenvalue tresh-hold
[...]
   33        0.862   1.758   0.000   2.620
   34        0.867   1.770   0.000   2.637
   35        0.870   1.774   0.000   2.643
   36        0.866   1.769   0.000   2.635
   37        0.868   1.778   0.000   2.646
   38        0.867   1.772   0.000   2.639
   39        0.865   1.768   0.000   2.632
   40        0.868   1.775   0.000   2.643
   41        0.872   1.788   0.000   2.660
   42        0.867   1.778   0.000   2.646
   43        0.870   1.787   0.000   2.657
   44        0.872   1.768   0.000   2.639
   45        0.868   1.774   0.000   2.643
   46        0.867   1.770   0.000   2.637
   47        0.867   1.769   0.000   2.636
   48        0.866   1.770   0.000   2.636
   49        0.863   1.758   0.000   2.620
   50        0.870   1.668   0.000   2.538
   51        0.868   1.660   0.000   2.528
   52        0.878   1.682   0.000   2.560
   53        1.231   2.642   0.000   3.873
   54        1.235   2.654   0.000   3.889
   55        1.260   2.603   0.000   3.863
   56        1.237   2.660   0.000   3.897
   57        0.512   0.683   6.019   7.214
   58        0.463   0.650   4.337   5.449
tot         50.925 102.874  10.356 164.154

 magnetization (x)

[...]

  FORCE on cell =-STRESS in cart. coord.  units (eV):
  Direction    XX          YY          ZZ          XY          YZ          ZX
  Alpha Z    99.74307    99.74307    99.74307
  Ewald   45497.49551 45712.39951-53902.47129   -36.05363    -7.55202    10.98126
  Hartree 44914.10443 44988.48185-44451.34126   -25.43677    -6.54729    11.36686
  E(xc)    -702.01551  -701.82718  -715.24544     0.29232    -0.00456    -0.00890
  Local  -93034.00875-93295.43265 95294.34743    62.76472    14.06685   -22.58122
  n-local  -156.59829  -148.71627  -142.99564    -0.57004     0.02856     0.01331
  augment    46.68937    43.07584    49.95432    -2.81630    -0.01541     0.02459
  Kinetic  3599.15604  3565.00835  4054.68616    -0.44024     0.01819     0.21912
  Fock     -307.55251  -304.31982  -287.05609     2.61878     0.01545     0.00974
  Total     -42.98663   -41.58731    -0.37875     0.35883     0.00977     0.02477
  in kB     -21.67932   -20.97360    -0.19101     0.18097     0.00493     0.01249

 VOLUME and BASIS-vectors are now :
  energy-cutoff  :      500.00
  volume of cell :     3176.86
      direct lattice vectors                 reciprocal lattice vectors
    13.114727170  0.018185377  0.002051014     0.076250189 -0.000019244 -0.000035271
     0.003104005 12.300548297 -0.000813634    -0.000112729  0.081297217 -0.000005731
     0.009109895  0.001400933 19.693131204    -0.000007946  0.000003361  0.050779130

  length of vectors
    13.114739939 12.300548716 19.693133361     0.076250199  0.081297295  0.050779131

 FORCES acting on ions:
    Electron-Ion                     Ewald-Force                    Non-Local-Force
   -.853E+01 0.254E+01 -.278E-01   0.906E+01 -.269E+01 0.328E-01   -.460E+00 0.838E-01 -.539E-02
   -.644E+00 0.712E+01 -.343E+00   0.742E+00 -.748E+01 0.342E+00   -.100E+00 0.331E+00 0.799E-03
   -.166E+02 0.174E+01 -.976E-01   0.169E+02 -.176E+01 0.923E-01   -.327E+00 -.279E-02 0.606E-02
   -.107E+02 0.767E+01 0.610E+00   0.117E+02 -.786E+01 -.617E+00   -.109E+01 0.226E+00 0.870E-02
   -.410E+01 0.452E+02 0.519E+00   0.294E+01 -.490E+02 -.501E+00   0.114E+01 0.361E+01 -.156E-01
   0.805E+01 0.150E+02 -.123E+01   -.823E+01 -.153E+02 0.123E+01   0.248E+00 0.388E+00 -.292E-03
   -.499E+01 0.142E+02 -.328E+00   0.504E+01 -.146E+02 0.327E+00   -.214E-02 0.453E+00 0.863E-03
   0.179E+02 -.996E+01 -.290E+00   -.193E+02 0.129E+02 0.302E+00   0.152E+01 -.313E+01 -.157E-01
   0.235E+01 -.181E+01 -.244E+01   -.260E+01 0.175E+01 0.244E+01   0.197E+00 0.397E-01 -.365E-02
   0.126E+02 -.149E+01 -.198E+01   -.132E+02 0.159E+01 0.199E+01   0.532E+00 -.187E+00 -.133E-01
   0.249E+02 -.166E+02 0.123E+01   -.258E+02 0.164E+02 -.123E+01   0.173E+01 -.539E-01 -.517E-02
   0.368E+01 0.574E+01 -.691E+00   -.508E+01 -.809E+01 0.696E+00   0.149E+01 0.291E+01 -.100E-01
   0.450E+01 -.149E+02 -.157E+01   -.448E+01 0.153E+02 0.157E+01   0.124E+00 -.429E+00 -.111E-02
   0.963E+01 -.168E+01 -.228E+01   -.101E+02 0.153E+01 0.228E+01   0.379E+00 0.222E+00 -.119E-01
   -.146E+02 -.417E+02 -.366E+00   0.136E+02 0.452E+02 0.377E+00   0.934E+00 -.354E+01 -.136E-01
   -.234E+01 -.530E+01 -.561E+00   0.245E+01 0.567E+01 0.562E+00   -.153E+00 -.321E+00 -.726E-03
   -.774E+01 -.123E+02 -.888E+00   0.797E+01 0.128E+02 0.885E+00   -.195E+00 -.487E+00 0.943E-03
   -.140E+02 0.417E+01 -.154E+00   0.154E+02 -.406E+01 0.146E+00   -.139E+01 -.563E-01 0.573E-02
   0.145E+02 0.286E+01 -.980E+00   -.150E+02 -.289E+01 0.974E+00   0.463E+00 0.657E-01 0.326E-02
   0.103E+02 0.190E+01 0.488E+00   -.949E+01 -.112E+01 -.488E+00   -.648E+00 -.626E+00 0.711E-03
   0.833E+01 0.280E+01 -.570E+00   -.902E+01 -.315E+01 0.576E+00   0.674E+00 0.295E+00 -.629E-02
   0.132E+01 0.471E+01 -.821E+00   -.181E+01 -.455E+01 0.824E+00   0.513E+00 -.187E+00 -.418E-02
   0.335E+01 0.174E+00 0.398E+00   -.478E+01 -.206E+00 -.405E+00   0.108E+01 -.151E+00 0.787E-02
   0.415E+01 0.138E+01 0.612E+00   -.515E+01 -.643E+00 -.615E+00   0.764E+00 -.382E+00 0.190E-02
   0.182E+02 0.258E+02 0.987E+00   -.172E+02 -.299E+02 -.985E+00   -.914E+00 0.413E+01 -.150E-02
   0.489E+01 -.322E+02 -.288E+00   -.410E+01 0.357E+02 0.309E+00   -.109E+01 -.388E+01 -.243E-01
   0.129E+02 0.560E+01 -.815E+00   -.155E+02 -.436E+01 0.816E+00   0.228E+01 -.789E+00 -.245E-02
   0.126E+02 0.987E+01 -.544E+00   -.114E+02 -.111E+02 0.546E+00   -.916E+00 0.125E+01 -.392E-02
   0.456E+01 -.187E+01 -.122E+01   -.509E+01 0.148E+01 0.122E+01   0.602E+00 0.352E+00 -.558E-02
   0.464E+01 0.421E+00 -.736E+00   -.459E+01 -.365E+00 0.735E+00   0.406E-01 -.347E-01 0.189E-02
   0.838E+01 0.142E+01 -.101E+01   -.880E+01 -.147E+01 0.101E+01   0.373E+00 -.163E-01 -.239E-03
   -.390E+01 0.672E-01 -.109E+01   0.366E+01 -.114E-01 0.109E+01   0.161E+00 -.385E-01 -.438E-02
   -.747E+01 0.152E+01 -.715E+00   0.756E+01 -.162E+01 0.717E+00   -.925E-01 0.299E-01 -.170E-02
   0.364E+01 0.723E+01 -.969E+00   -.391E+01 -.742E+01 0.967E+00   0.186E+00 0.216E+00 0.828E-03
   0.519E+01 0.366E+01 -.435E+00   -.554E+01 -.379E+01 0.437E+00   0.532E+00 0.196E+00 -.175E-02
   0.193E+01 0.120E+01 -.924E+00   -.211E+01 -.125E+01 0.925E+00   0.226E+00 0.114E+00 -.232E-02
   0.277E+01 0.225E+01 -.132E+01   -.322E+01 -.236E+01 0.132E+01   0.345E+00 0.153E+00 -.108E-02
   0.467E+01 0.356E+01 -.142E+01   -.476E+01 -.371E+01 0.142E+01   0.197E+00 0.895E-01 -.113E-02
   0.699E+01 0.483E+01 -.258E+00   -.731E+01 -.528E+01 0.261E+00   0.298E+00 0.395E+00 -.311E-02
   0.520E+01 -.385E+00 -.667E+00   -.555E+01 0.675E-01 0.662E+00   0.238E+00 0.223E+00 0.437E-02
   0.804E+01 -.107E-02 -.186E+01   -.806E+01 -.106E+00 0.186E+01   0.464E-01 0.883E-01 -.125E-02
   0.310E+01 -.424E+01 -.127E+01   -.283E+01 0.426E+01 0.127E+01   -.139E+00 0.322E-01 -.107E-02
   0.132E+01 -.873E+01 -.511E+00   -.861E+00 0.914E+01 0.514E+00   -.215E+00 -.419E+00 -.855E-03
   0.840E+00 0.156E+01 -.554E+00   -.947E+00 -.171E+01 0.550E+00   -.359E-01 0.219E+00 0.427E-02
   0.105E+01 -.285E+01 -.118E+01   -.146E+01 0.297E+01 0.118E+01   0.257E+00 -.153E+00 0.915E-03
   0.231E+01 -.702E+01 -.735E+00   -.247E+01 0.729E+01 0.734E+00   0.109E+00 -.297E+00 0.316E-02
   0.878E+01 -.105E+01 -.102E+01   -.933E+01 0.134E+01 0.102E+01   0.444E+00 -.175E+00 0.187E-02
   0.189E+01 -.250E+01 -.803E+00   -.196E+01 0.294E+01 0.807E+00   0.932E-01 -.514E+00 -.340E-02
   -.777E+01 -.825E+00 -.655E+00   0.795E+01 0.996E+00 0.657E+00   -.134E+00 -.119E+00 -.541E-03
   0.270E+02 -.717E+01 0.136E+01   -.301E+02 0.129E+02 -.141E+01   0.361E+01 -.604E+01 0.476E-01
   0.355E+02 -.243E+02 0.215E+01   -.424E+02 0.238E+02 -.221E+01   0.744E+01 0.319E+00 0.645E-01
   0.383E+02 0.344E+02 -.687E+00   -.437E+02 -.436E+02 0.656E+00   0.577E+01 0.925E+01 0.304E-01
   -.578E+02 0.370E+02 0.249E+01   0.783E+02 -.361E+02 -.269E+01   -.195E+02 -.803E+00 0.189E+00
   -.866E+02 -.300E+02 0.124E+01   0.109E+03 0.292E+02 -.141E+01   -.215E+02 0.518E+00 0.155E+00
   -.102E+03 -.427E+02 0.878E+01   0.122E+03 0.458E+02 -.915E+01   -.193E+02 -.255E+01 0.347E+00
   0.834E+02 0.172E+02 0.170E+01   -.105E+03 -.182E+02 -.182E+01   0.205E+02 0.105E+01 0.114E+00
   -.458E+02 0.184E+02 0.846E+01   0.470E+02 -.185E+02 -.839E+01   -.242E+01 -.485E+00 -.612E-01
   -.214E+02 -.219E+02 0.551E+01   0.209E+02 0.233E+02 -.544E+01   0.394E-02 -.125E+01 -.751E-01
   0.169E+02 -.130E+00 -.768E+00   0.359E-12 0.888E-13 -.107E-13   -.151E+02 0.137E+00 0.698E+00

 POSITION                                       TOTAL-FORCE (eV/Angst)
      2.96242     12.30274      9.84213         0.053239     -0.060683     -0.000651
      0.74992      1.22230      9.84594         0.001029     -0.016891      0.000672
      1.49599     12.30106      9.84426        -0.105416     -0.018562      0.001066
      3.67707      1.27526      9.83944        -0.137251      0.046545      0.001880
      2.90268      2.51768      9.83860         0.039768      0.017487      0.001037
      0.66677      3.66657      9.84815         0.089518      0.107262     -0.001474
      1.44973      2.46579      9.84436         0.039374      0.004365     -0.000471
      2.73331      4.89946      9.83881         0.210478     -0.317759     -0.004595
      0.63496      6.14484      9.85180        -0.052038     -0.019384     -0.004959
      1.33180      4.90632      9.84829        -0.043665     -0.111382     -0.004135
      3.42092      6.13569      9.83185         0.905890     -0.260679     -0.010128
      2.73863      7.38930      9.84131         0.169821      0.711822     -0.005822
      0.67530      8.62874      9.84989         0.158258     -0.082079     -0.002327
      1.33590      7.38286      9.84989        -0.014692      0.089088     -0.005717
      2.90356      9.78515      9.84288        -0.038703     -0.277521     -0.003670
      0.75288     11.07843      9.84663        -0.044709      0.031083      0.000279
      1.45297      9.83466      9.84696         0.019301     -0.015170     -0.001736
      3.68270     11.03487      9.84263        -0.074702      0.055557     -0.001952
      7.31392      0.01096      9.84727         0.034996      0.041672     -0.003083
      5.14763      1.28880      9.83915         0.156111      0.121504      0.000311
      5.85935      0.01909      9.84429         0.012711     -0.039208     -0.001357
      8.06082      1.23167      9.84643         0.039971     -0.028313     -0.001759
      7.34986      2.45805      9.83978        -0.297972     -0.194371      0.001384
      8.08386      3.71624      9.83894        -0.206167      0.344144     -0.001214
      8.04979      6.18674      9.83704        -0.029127      0.242697      0.000033
      8.10267      8.60581      9.84286        -0.361849     -0.638342     -0.004643
      7.35026      9.86632      9.84525        -0.278051      0.415237     -0.001729
      5.15747     11.05054      9.84348         0.249776      0.094255     -0.001944
      8.07007     11.09244      9.84826         0.097683     -0.026114     -0.003125
     11.68736      0.01745      9.85081         0.109717      0.019511      0.000127
      9.50365      1.23442      9.84954        -0.021988     -0.072807     -0.003424
     10.23941      0.01707      9.85107        -0.087840      0.015003     -0.002062
     12.41384      1.24031      9.85024        -0.022273     -0.069568     -0.000427
     11.65886      2.45617      9.85085        -0.064600      0.050876     -0.001266
      9.50900      3.69770      9.84575         0.203351      0.084175      0.000368
     10.22604      2.46025      9.84934         0.053713      0.065304     -0.002037
     12.35350      3.69111      9.85178        -0.087466      0.045040     -0.001045
     11.63544      4.92771      9.85191         0.111491     -0.050824     -0.001399
      9.49345      6.16886      9.84459        -0.008740     -0.027630     -0.000646
     10.20889      4.93361      9.84765        -0.098825     -0.086755     -0.000874
     12.33938      6.16399      9.85364         0.032145     -0.012975     -0.001465
     11.64555      7.40388      9.85179         0.121083      0.053805      0.000626
      9.52510      8.63426      9.84690         0.230492     -0.037533      0.001773
     10.22026      7.39738      9.84777        -0.147294      0.087363      0.000822
     12.36155      8.64143      9.85190        -0.144678     -0.033752      0.001028
     11.66643      9.87716      9.85046        -0.037832     -0.047596      0.001708
      9.50994     11.09935      9.84973        -0.067049      0.102065     -0.001822
     10.23414      9.87449      9.84946         0.030114     -0.097775      0.000301
     12.41800     11.09507      9.84992         0.029142      0.049711      0.000980
      5.92044      2.49504      9.83460         0.687993     -0.565655      0.005034
      7.33879      4.93013      9.83185         0.895370     -0.130471      0.010807
      5.92982      9.84813      9.84287         0.646187      0.492498      0.000722
      3.51868      3.76166      9.83259        -0.669569      0.075895      0.011775
      3.50498      8.53673      9.83753        -1.096947     -0.225745      0.002222
      4.76011      6.10222      9.81594        -0.823159      0.297959      0.012975
      7.41075      7.42488      9.83590         1.063936      0.183205      0.007552
      5.46501      4.38189      9.82179        -0.952470     -0.528727      0.014930
      5.44563      7.91208      9.82565        -0.477587      0.149140      0.002546
    total drift:                               -0.004244     -0.004416      0.000113

  FREE ENERGIE OF THE ION-ELECTRON SYSTEM (eV)
  free  energy   TOTEN  =      -610.59994943 eV

  energy  without entropy=     -610.59994055  energy(sigma->0) =     -610.59994499

 stress matrix after NEB project (eV)
    -42.98663      0.35799      0.02477
      0.35883    -41.58731      0.00967
      0.02454      0.00977     -0.37875
  FORCES: max atom, RMS     1.119937    0.429255
  FORCE total and by dimension    3.269112    1.096947
  Stress total and by dimension   59.814352   42.986633
 writing wavefunctions

 total charge

[...]

 magnetization (x)

# of ion       s       p       d       tot
    1        0.001   0.013   0.000   0.014
    2        0.000   0.001   0.000   0.001
    3       -0.001  -0.007   0.000  -0.008
    4       -0.002  -0.025   0.000  -0.027
    5        0.001   0.008   0.000   0.009
    6        0.000   0.001   0.000   0.001
    7       -0.000  -0.002   0.000  -0.002
    8       -0.003  -0.048   0.000  -0.051
    9       -0.002  -0.037   0.000  -0.039
   10        0.001   0.010   0.000   0.011
   11        0.005   0.026   0.000   0.030
   12       -0.000  -0.026   0.000  -0.026
   13        0.000   0.004   0.000   0.005
   14        0.001   0.007   0.000   0.007
   15        0.002   0.015   0.000   0.017
   16        0.000   0.004   0.000   0.005
   17       -0.001  -0.010   0.000  -0.011
   18       -0.002  -0.031   0.000  -0.033
   19        0.000   0.003   0.000   0.004
   20        0.001  -0.001   0.000   0.000
   21       -0.000  -0.002   0.000  -0.002
   22       -0.001  -0.005   0.000  -0.005
   23       -0.003  -0.012   0.000  -0.016
   24       -0.004  -0.015   0.000  -0.019
   25        0.001   0.004   0.000   0.004
   26        0.002   0.013   0.000   0.015
   27        0.004   0.020   0.000   0.024
   28        0.002   0.016   0.000   0.018
   29       -0.000  -0.009   0.000  -0.010
   30        0.000   0.003   0.000   0.004
   31        0.000   0.003   0.000   0.004
   32       -0.000  -0.001   0.000  -0.001
   33       -0.000  -0.002   0.000  -0.002
   34        0.000   0.002   0.000   0.002
   35        0.001   0.006   0.000   0.007
   36       -0.001  -0.006   0.000  -0.007
   37        0.000  -0.001   0.000  -0.001
   38       -0.001  -0.010   0.000  -0.011
   39       -0.000  -0.010   0.000  -0.011
   40       -0.000  -0.003   0.000  -0.003
   41        0.001   0.009   0.000   0.010
   42       -0.001  -0.009   0.000  -0.010
   43       -0.000  -0.003   0.000  -0.003
   44        0.001   0.012   0.000   0.013
   45        0.000   0.003   0.000   0.003
   46        0.000   0.001   0.000   0.001
   47        0.000   0.003   0.000   0.004
   48       -0.000  -0.005   0.000  -0.006
   49       -0.000  -0.003   0.000  -0.003
   50        0.011   0.036   0.000   0.047
   51        0.013   0.054   0.000   0.067
   52       -0.014  -0.066   0.000  -0.080
   53        0.003  -0.005   0.000  -0.002
   54       -0.009  -0.070   0.000  -0.079
   55       -0.010  -0.221   0.000  -0.231
   56       -0.007  -0.034   0.000  -0.041
   57       -0.060  -0.035  -2.849  -2.945
   58        0.073   0.029   3.409   3.512
tot          0.004  -0.408   0.560   0.156