 vasp.5.4.4.18Apr17-6-g9f103f2a35 (build Feb 25 2019 10:51:38) complex

 executed on             LinuxIFC date 2021.06.17  13:04:45

 INCAR:
 POTCAR:    PAW_PBE C 08Apr2002
 POTCAR:    PAW_PBE N 08Apr2002
 POTCAR:    PAW_PBE Fe 06Sep2000
 POTCAR:    PAW_PBE Cr 06Sep2000

 POTCAR:    PAW_PBE C 08Apr2002
   VRHFIN =C: s2p2

   TITEL  = PAW_PBE C 08Apr2002
   POMASS =   12.011; ZVAL   =    4.000    mass and valenz
   ENMAX  =  400.000; ENMIN  =  300.000 eV

 POTCAR:    PAW_PBE N 08Apr2002
   VRHFIN =N: s2p3

   TITEL  = PAW_PBE N 08Apr2002
   POMASS =   14.001; ZVAL   =    5.000    mass and valenz
   ENMAX  =  400.000; ENMIN  =  300.000 eV

 POTCAR:    PAW_PBE Fe 06Sep2000
   VRHFIN =Fe:  d7 s1

   TITEL  = PAW_PBE Fe 06Sep2000
   POMASS =   55.847; ZVAL   =    8.000    mass and valenz
   ENMAX  =  267.882; ENMIN  =  200.911 eV

 POTCAR:    PAW_PBE Cr 06Sep2000
   VRHFIN =Cr : d5 s1

   TITEL  = PAW_PBE Cr 06Sep2000
   POMASS =   51.996; ZVAL   =    6.000    mass and valenz
   ENMAX  =  227.080; ENMIN  =  170.310 eV

  PAW_PBE C 08Apr2002                   :
  PAW_PBE N 08Apr2002                   :
  PAW_PBE Fe 06Sep2000                  :
  PAW_PBE Cr 06Sep2000                  :

 POSCAR:  C  N Fe Cr
  positions in cartesian coordinates
 exchange correlation table for  LEXCH =        8
   RHO(1)=    0.500       N(1)  =     2000
   RHO(2)=  100.500       N(2)  =     4000

 VTST: version 3.2, (02/03/18)

 CHAIN: initializing optimizer

 OPT: Using VASP Conjugate-Gradient optimizer
 CHAIN: Read ICHAIN            0

 POSCAR:  C  N Fe Cr
  positions in cartesian coordinates

 ion  position               nearest neighbor table
   1  0.222  0.004  0.499-  19 1.42   3 1.42   4 1.43
   2  0.057  0.103  0.500-   3 1.42  33 1.42   7 1.44
   3  0.110  0.002  0.500-   2 1.42   1 1.42  17 1.43
   4  0.279  0.105  0.499-  21 1.42   1 1.43   5 1.43
   5  0.228  0.207  0.499-   4 1.43   7 1.44   8 1.45
   6  0.060  0.304  0.500-   7 1.42  11 1.43  37 1.44
   7  0.115  0.204  0.500-   6 1.42   5 1.44   2 1.44
   8  0.289  0.308  0.499-  50 1.40   5 1.45   9 1.46
   9  0.233  0.410  0.500-  49 1.39   8 1.46  11 1.46
  10  0.056  0.501  0.500-  14 1.41  40 1.44  11 1.44
  11  0.117  0.404  0.500-   6 1.43  10 1.44   9 1.46
  12  0.225  0.602  0.501-  49 1.39  15 1.42  14 1.43
  13  0.053  0.700  0.500-  18 1.42  14 1.43  44 1.44
  14  0.112  0.602  0.500-  10 1.41  13 1.43  12 1.43
  15  0.277  0.705  0.501-  52 1.37  16 1.42  12 1.42
  16  0.220  0.803  0.500-  15 1.42  19 1.42  18 1.42
  17  0.053  0.901  0.500-  18 1.42  48 1.42   3 1.43
  18  0.108  0.801  0.500-  13 1.42  16 1.42  17 1.42
  19  0.276  0.904  0.500-  27 1.42  16 1.42   1 1.42
  20  0.555  0.998  0.500-  22 1.41  23 1.41  29 1.43
  21  0.391  0.103  0.500-  25 1.42   4 1.42  22 1.43
  22  0.444  0.002  0.500-  20 1.41  27 1.41  21 1.43
  23  0.612  0.098  0.501-  20 1.41  31 1.42  24 1.42
  24  0.559  0.199  0.501-  51 1.36  23 1.42  25 1.44
  25  0.447  0.204  0.500-  50 1.39  21 1.42  24 1.44
  26  0.552  0.796  0.501-  53 1.39  29 1.42  28 1.43
  27  0.387  0.903  0.500-  22 1.41  19 1.42  28 1.42
  28  0.440  0.802  0.501-  52 1.36  27 1.42  26 1.43
  29  0.608  0.897  0.501-  46 1.42  26 1.42  20 1.43
  30  0.889  0.999  0.500-  48 1.42  32 1.42  33 1.43
  31  0.723  0.098  0.501-  23 1.42  36 1.42  32 1.42
  32  0.777  0.997  0.501-  30 1.42  31 1.42  46 1.43
  33  0.945  0.100  0.500-  34 1.42   2 1.42  30 1.43
  34  0.891  0.200  0.501-  37 1.42  36 1.42  33 1.42
  35  0.722  0.296  0.501-  51 1.36  36 1.42  39 1.44
  36  0.779  0.199  0.501-  31 1.42  35 1.42  34 1.42
  37  0.946  0.301  0.500-  34 1.42  38 1.43   6 1.44
  38  0.888  0.399  0.500-  40 1.41  37 1.43  39 1.44
  39  0.775  0.400  0.500-  54 1.37  35 1.44  38 1.44
  40  0.943  0.500  0.500-  38 1.41  10 1.44  41 1.44
  41  0.882  0.597  0.499-  44 1.42  40 1.44  43 1.46
  42  0.709  0.693  0.500-  53 1.40  47 1.45  43 1.47
  43  0.767  0.591  0.499-  54 1.38  41 1.46  42 1.47
  44  0.940  0.698  0.500-  45 1.42  41 1.42  13 1.44
  45  0.884  0.797  0.500-  44 1.42  47 1.44  48 1.44
  46  0.720  0.896  0.500-  29 1.42  32 1.43  47 1.43
  47  0.771  0.794  0.500-  46 1.43  45 1.44  42 1.45
  48  0.941  0.898  0.500-  30 1.42  17 1.42  45 1.44
  49  0.286  0.510  0.501-  12 1.39   9 1.39  56 2.42
  50  0.399  0.305  0.499-  25 1.39   8 1.40  55 2.00
  51  0.615  0.295  0.501-  35 1.36  24 1.36  55 1.95
  52  0.384  0.706  0.502-  28 1.36  15 1.37  56 1.97
  53  0.599  0.695  0.501-  26 1.39  42 1.40  56 2.23
  54  0.715  0.492  0.498-  39 1.37  43 1.38
  55  0.517  0.413  0.486-  51 1.95  50 2.00  56 2.12
  56  0.467  0.573  0.506-  52 1.97  55 2.12  53 2.23  49 2.42

  LATTYP: Found a triclinic cell.
 ALAT       =    12.3282000000
 B/A-ratio  =     1.4492666523
 C/A-ratio  =     1.6459418244
 COS(alpha) =     0.0000418214
 COS(beta)  =     0.0001954769
 COS(gamma) =     0.7034062548

  Lattice vectors:

 A1 = (  -0.2324103604,  12.3260091134,   0.0000000000)
 A2 = ( -12.9342103604,  12.3260091134,   0.0000000000)
 A3 = (   0.0026561511,   0.0040173065,  20.2914994285)

Analysis of symmetry for initial positions (statically):
 Subroutine PRICEL returns:
 Original cell was already a primitive cell.

 Routine SETGRP: Setting up the symmetry group for a
 triclinic supercell.

 Subroutine GETGRP returns: Found  1 space group operations
 (whereof  1 operations were pure point group operations)
 out of a pool of  2 trial point group operations.

The static configuration has the point symmetry C_1 .

Analysis of symmetry for dynamics (positions and initial velocities):
 Subroutine PRICEL returns:
 Original cell was already a primitive cell.

[...]

The dynamic configuration has the point symmetry C_1 .

Analysis of structural, dynamic, and magnetic symmetry:
 Subroutine PRICEL returns:
 Original cell was already a primitive cell.

 Routine SETGRP: Setting up the symmetry group for a
 triclinic supercell.

 Subroutine GETGRP returns: Found  1 space group operations
 (whereof  1 operations were pure point group operations)
 out of a pool of  2 trial point group operations.

The magnetic configuration has the point symmetry C_1 .

 Subroutine INISYM returns: Found  1 space group operations
 (whereof  1 operations are pure point group operations),
 and found     1 'primitive' translations

 KPOINTS: KPOINTS created by Atomic Simulation Env

Automatic generation of k-mesh.
Space group operators:
 irot       det(A)        alpha          n_x          n_y          n_z        tau_x        tau_y        tau_z
    1     1.000000     0.000001     1.000000     0.000000     0.000000     0.000000     0.000000     0.000000

 Subroutine IBZKPT returns following result:

 Found      2 irreducible k-points:

 Following reciprocal coordinates:
            Coordinates               Weight
  0.250000  0.250000 -0.000000      2.000000
 -0.250000  0.250000 -0.000000      2.000000

 Following cartesian coordinates:
            Coordinates               Weight
  0.019682  0.020653 -0.000007      2.000000
 -0.019682  0.019911 -0.000001      2.000000

 Subroutine IBZKPT_HF returns following result:

 Found      4 k-points in 1st BZ
 the following      4 k-points will be used (e.g. in the exchange kernel)
 Following reciprocal coordinates:   # in IRBZ
  0.250000  0.250000 -0.000000    0.25000000   1 t-inv F
 -0.250000  0.250000 -0.000000    0.25000000   2 t-inv F
 -0.250000 -0.250000  0.000000    0.25000000   1 t-inv T
  0.250000 -0.250000  0.000000    0.25000000   2 t-inv T

 SYSTEM =  unknown system
 POSCAR =   C  N Fe Cr

 Startparameter for this run:
   NWRITE =      2    write-flag & timer
   PREC   = accura    normal or accurate (medium, high low for compatibility)
   ISTART =      1    job   : 0-new  1-cont  2-samecut
   ICHARG =      0    charge: 1-file 2-atom 10-const
   ISPIN  =      2    spin polarized calculation?
   LNONCOLLINEAR =      F non collinear calculations
   LSORBIT =      F    spin-orbit coupling
   INIWAV =      1    electr: 0-lowe 1-rand  2-diag
   LASPH  =      T    aspherical Exc in radial PAW
   METAGGA=      F    non-selfconsistent MetaGGA calc.

 Electronic Relaxation 1
   ENCUT  =  500.0 eV  36.75 Ry    6.06 a.u.  23.16 22.48 37.00*2*pi/ulx,y,z
   ENINI  =  500.0     initial cutoff
   ENAUG  =  644.9 eV  augmentation charge cutoff
   NELM   =    250;   NELMIN=  2; NELMDL=  0     # of ELM steps
   EDIFF  = 0.1E-03   stopping-criterion for ELM
   LREAL  =      F    real-space projection
   NLSPLINE    = F    spline interpolate recip. space projectors
   LCOMPAT=      F    compatible to vasp.4.4
   GGA_COMPAT  = T    GGA compatible to vasp.4.4-vasp.4.6
   LMAXPAW     = -100 max onsite density
   LMAXMIX     =    2 max onsite mixed and CHGCAR
   VOSKOWN=      0    Vosko Wilk Nusair interpolation
   ROPT   =    0.00000   0.00000   0.00000   0.00000
 Ionic relaxation
   EDIFFG = -.3E-01   stopping-criterion for IOM
   NSW    =      0    number of steps for IOM
   NBLOCK =      1;   KBLOCK =      1    inner block; outer block
   IBRION =     -1    ionic relax: 0-MD 1-quasi-New 2-CG
   NFREE  =      1    steps in history (QN), initial steepest desc. (CG)
   ISIF   =      2    stress and relaxation
   IWAVPR =     10    prediction:  0-non 1-charg 2-wave 3-comb
   ISYM   =      3    0-nonsym 1-usesym 2-fastsym
   LCORR  =      T    Harris-Foulkes like correction to forces

   POTIM  = 0.5000    time-step for ionic-motion
   TEIN   =    0.0    initial temperature
   TEBEG  =    0.0;   TEEND  =   0.0 temperature during run
   SMASS  =  -3.00    Nose mass-parameter (am)
   estimated Nose-frequenzy (Omega)   =  0.10E-29 period in steps =****** mass=  -0.369E-26a.u.
   SCALEE = 1.0000    scale energy and forces
   NPACO  =    256;   APACO  = 16.0  distance and # of slots for P.C.
   PSTRESS=    0.0 pullay stress

  Mass of Ions in am
   POMASS =  12.01 14.00 55.85 52.00
  Ionic Valenz
   ZVAL   =   4.00  5.00  8.00  6.00
  Atomic Wigner-Seitz radii
  virtual crystal weights
   VCA    =   1.00  1.00  1.00  1.00
   NELECT =     236.0000    total number of electrons
   NUPDOWN=      -1.0000    fix difference up-down

 DOS related values:
   EMIN   =  10.00;   EMAX   =-10.00  energy-range for DOS
   EFERMI =   0.00
   ISMEAR =     0;   SIGMA  =   0.10  broadening in eV -4-tet -1-fermi 0-gaus

 Electronic relaxation 2 (details)
   IALGO  =     53    algorithm
   LDIAG  =      T    sub-space diagonalisation (order eigenvalues)
   LSUBROT=      F    optimize rotation matrix (better conditioning)
   TURBO    =      0    0=normal 1=particle mesh
   IRESTART =      0    0=no restart 2=restart with 2 vectors
   NREBOOT  =      0    no. of reboots
   NMIN     =      0    reboot dimension
   EREF     =   0.00    reference energy to select bands
   IMIX   =      4    mixing-type and parameters
     AMIX     =   0.40;   BMIX     =  1.00
     AMIX_MAG =   1.60;   BMIX_MAG =  1.00
     AMIN     =   0.10
     WC   =   100.;   INIMIX=   1;  MIXPRE=   1;  MAXMIX= -45

 Intra band minimization:
   WEIMIN = 0.0000     energy-eigenvalue tresh-hold
   EBREAK =  0.17E-06  absolut break condition
   DEPER  =   0.30     relativ break condition

   TIME   =   0.20     timestep for ELM

[...]
   21        0.868   1.785   0.000   2.654
   22        0.868   1.801   0.000   2.668
   23        0.872   1.797   0.000   2.669
   24        0.865   1.762   0.000   2.627
   25        0.859   1.739   0.000   2.598
   26        0.860   1.740   0.000   2.601
   27        0.871   1.797   0.000   2.668
   28        0.867   1.762   0.000   2.629
   29        0.869   1.784   0.000   2.652
   30        0.868   1.781   0.000   2.649
   31        0.873   1.775   0.000   2.648
   32        0.865   1.790   0.000   2.655
   33        0.867   1.774   0.000   2.641
   34        0.869   1.782   0.000   2.651
   35        0.866   1.761   0.000   2.627
   36        0.869   1.788   0.000   2.657
   37        0.862   1.770   0.000   2.633
   38        0.867   1.776   0.000   2.643
   39        0.858   1.744   0.000   2.603
   40        0.866   1.762   0.000   2.628
   41        0.860   1.748   0.000   2.608
   42        0.845   1.685   0.000   2.530
   43        0.847   1.700   0.000   2.547
   44        0.864   1.771   0.000   2.635
   45        0.863   1.761   0.000   2.624
   46        0.870   1.764   0.000   2.634
   47        0.859   1.748   0.000   2.607
   48        0.866   1.770   0.000   2.637
   49        1.225   2.604   0.000   3.829
   50        1.220   2.645   0.000   3.865
   51        1.239   2.718   0.000   3.957
   52        1.240   2.716   0.000   3.956
   53        1.224   2.616   0.000   3.839
   54        1.239   2.605   0.000   3.844
   55        0.410   0.387   6.231   7.028
   56        0.366   0.436   4.323   5.125
tot         49.638 101.419  10.554 161.611

 magnetization (x)

[...]

  FORCE on cell =-STRESS in cart. coord.  units (eV):
  Direction    XX          YY          ZZ          XY          YZ          ZX
  Alpha Z    94.36854    94.36854    94.36854
  Ewald   46214.29994 46323.01934-54364.92961   -29.84619   -49.90216    13.62785
  Hartree 45664.85922 45664.51537-45072.78246     3.12942   -32.91364     9.05013
  E(xc)    -689.67696  -690.79833  -704.38142     0.42931    -0.13730     0.07329
  Local  -94419.42397-94515.28524 96407.03996    22.85817    83.05553   -22.43068
  n-local  -178.52851  -171.51859  -167.33832    -4.52915    -1.01746    -0.09257
  augment    45.73188    45.26779    54.30742     0.95897    -0.65111    -0.04918
  Kinetic  3536.71916  3520.96023  4044.30242     5.87244     1.51110    -0.57582
  Fock     -308.04806  -309.35817  -290.91155    -0.44480     0.77928     0.06040
  Total     -39.69876   -38.82906    -0.32503    -1.57183     0.72423    -0.33658
  in kB     -20.02099   -19.58239    -0.16392    -0.79271     0.36525    -0.16974

 VOLUME and BASIS-vectors are now :
  energy-cutoff  :      500.00
  volume of cell :     3176.89
      direct lattice vectors                 reciprocal lattice vectors
    12.701800000  0.000000000  0.000000000     0.078728999  0.001484457 -0.000010599
    -0.232410360 12.326009113  0.000000000     0.000000000  0.081129260 -0.000016062
     0.002656151  0.004017307 20.291499428     0.000000000  0.000000000  0.049281720

  length of vectors
    12.701800000 12.328200000 20.291500000     0.078742993  0.081129262  0.049281720

 FORCES acting on ions:
    Electron-Ion                     Ewald-Force                    Non-Local-Force
   0.143E+01 -.331E+01 0.277E+01   -.191E+01 0.345E+01 -.277E+01   0.513E+00 -.525E-01 0.291E-02
   -.269E+01 -.665E+01 -.693E-01   0.278E+01 0.658E+01 0.621E-01   -.441E-01 0.848E-02 0.578E-02
   0.322E+01 0.120E+01 0.194E+01   -.349E+01 -.122E+01 -.195E+01   0.154E+00 0.139E-01 0.484E-02
   0.899E+01 -.227E+01 0.244E+01   -.947E+01 0.202E+01 -.245E+01   0.389E+00 0.156E+00 0.487E-02
   0.433E+01 -.114E+02 0.105E+01   -.476E+01 0.117E+02 -.106E+01   0.447E+00 -.184E+00 0.206E-01
   -.529E+00 -.495E+01 -.134E+01   0.518E+00 0.480E+01 0.133E+01   0.933E-01 0.681E-01 0.128E-01
   -.223E+01 -.130E+01 -.698E+00   0.179E+01 0.146E+01 0.703E+00   0.320E+00 -.846E-01 -.653E-02
   0.196E+02 -.233E+02 0.865E-01   -.231E+02 0.237E+02 -.410E-01   0.340E+01 -.407E+00 -.292E-01
   -.810E+01 0.163E+02 -.405E+01   0.666E+01 -.187E+02 0.414E+01   0.130E+01 0.222E+01 -.121E+00
   0.486E+01 0.645E+01 -.103E+01   -.495E+01 -.656E+01 0.105E+01   0.338E-01 0.105E+00 -.205E-01
   -.959E+01 0.107E+01 -.186E+01   0.962E+01 -.143E+01 0.184E+01   0.389E-01 0.298E+00 0.726E-02
   0.232E+01 -.188E+01 -.208E+01   -.410E+01 0.384E+01 0.207E+01   0.168E+01 -.198E+01 -.511E-02
   0.701E+01 0.603E+01 0.456E+00   -.718E+01 -.584E+01 -.443E+00   0.258E+00 -.787E-01 -.896E-02
   0.329E+00 -.238E+01 -.987E+00   -.593E+00 0.268E+01 0.961E+00   0.350E+00 -.259E+00 0.190E-02
   0.211E+02 0.134E+02 0.119E+00   -.247E+02 -.137E+02 -.212E+00   0.377E+01 0.360E+00 0.149E+00
   0.754E+01 0.177E+01 0.289E+01   -.817E+01 -.166E+01 -.289E+01   0.645E+00 -.670E-01 0.142E-01
   0.174E+01 -.107E+00 0.208E+01   -.178E+01 0.258E+00 -.208E+01   0.824E-01 -.797E-01 0.289E-02
   0.445E+01 0.135E+01 0.254E+01   -.510E+01 -.149E+01 -.255E+01   0.534E+00 0.623E-01 0.123E-01
   0.520E+01 -.369E+01 0.237E+01   -.554E+01 0.401E+01 -.235E+01   0.293E+00 -.373E+00 -.156E-01
   -.537E+01 0.945E+01 -.160E+01   0.494E+01 -.955E+01 0.159E+01   0.323E+00 0.151E+00 0.153E-01
   0.254E+01 0.539E+01 0.122E+01   -.238E+01 -.596E+01 -.126E+01   0.335E-01 0.656E+00 0.474E-01
   0.474E+01 -.255E+01 0.719E+00   -.431E+01 0.258E+01 -.724E+00   -.338E+00 -.688E-01 0.131E-01
   0.285E-01 0.772E+01 -.580E+01   -.250E+00 -.848E+01 0.578E+01   0.923E-01 0.733E+00 0.143E-01
   0.175E+02 0.268E+02 -.938E+01   -.188E+02 -.300E+02 0.954E+01   0.153E+01 0.321E+01 -.150E+00
   -.329E-01 0.131E+02 -.295E+01   0.910E+00 -.161E+02 0.312E+01   -.108E+01 0.291E+01 -.139E+00
   0.283E+01 0.380E+01 -.308E+01   -.355E+01 -.132E+01 0.303E+01   0.981E+00 -.247E+01 0.359E-01
   -.189E+01 -.959E+00 0.110E+01   0.215E+01 0.162E+01 -.112E+01   -.128E+00 -.616E+00 0.219E-01
   -.233E+02 -.110E+02 -.342E+01   0.248E+02 0.140E+02 0.334E+01   -.181E+01 -.305E+01 0.698E-01
   -.918E-02 0.298E+01 -.140E+01   -.178E+00 -.258E+01 0.139E+01   0.551E-01 -.492E+00 0.175E-01
   -.308E+01 0.281E+00 -.135E+01   0.334E+01 -.266E+00 0.135E+01   -.139E+00 -.635E-02 -.903E-03
   -.828E+01 0.658E+01 -.656E+01   0.868E+01 -.696E+01 0.657E+01   -.339E+00 0.332E+00 -.138E-01
   -.960E+00 0.648E+01 -.301E+01   0.140E+01 -.658E+01 0.300E+01   -.501E+00 0.936E-01 0.673E-02
   -.967E+00 0.106E+01 -.192E+01   0.101E+01 -.119E+01 0.192E+01   -.788E-01 0.600E-01 -.473E-02
   -.491E+01 -.145E+01 -.393E+01   0.558E+01 0.163E+01 0.392E+01   -.519E+00 -.769E-01 0.164E-01
   -.323E+02 -.168E+02 -.985E+01   0.360E+02 0.173E+02 0.991E+01   -.382E+01 -.487E+00 -.109E+00
   -.107E+02 -.847E+00 -.799E+01   0.114E+02 0.846E+00 0.799E+01   -.654E+00 0.472E-01 -.120E-01
   -.677E+01 -.563E+01 -.245E+01   0.694E+01 0.548E+01 0.246E+01   -.249E+00 0.449E-01 -.123E-01
   -.578E-01 0.167E+01 -.693E+00   0.184E+00 -.204E+01 0.700E+00   -.193E+00 0.319E+00 0.433E-02
   -.412E+01 0.424E+01 -.915E+00   0.585E+01 -.593E+01 0.979E+00   -.159E+01 0.181E+01 -.556E-01
   -.428E+01 -.765E+01 0.110E+01   0.434E+01 0.774E+01 -.113E+01   -.331E-01 -.100E+00 0.332E-01
   0.117E+02 -.264E+01 0.108E+01   -.119E+02 0.304E+01 -.108E+01   0.895E-01 -.369E+00 -.195E-01
   -.826E+01 0.276E+02 0.563E+00   0.113E+02 -.280E+02 -.578E+00   -.303E+01 0.445E+00 0.296E-01
   0.155E+02 -.261E+02 0.447E+01   -.141E+02 0.282E+02 -.446E+01   -.125E+01 -.221E+01 0.146E-01
   0.216E+01 0.359E+01 0.347E+00   -.215E+01 -.345E+01 -.338E+00   -.802E-01 -.551E-01 -.133E-01
   0.552E+01 0.224E+01 0.965E+00   -.509E+01 -.243E+01 -.979E+00   -.270E+00 0.107E+00 0.133E-01
   -.794E+01 0.670E+01 -.168E+01   0.837E+01 -.652E+01 0.169E+01   -.367E+00 -.152E+00 -.311E-02
   -.336E+00 0.150E+02 0.155E-01   0.656E+00 -.153E+02 -.118E-02   -.400E+00 0.278E+00 -.188E-01
   0.397E+01 0.799E+01 0.768E+00   -.406E+01 -.795E+01 -.764E+00   0.451E-01 0.285E-01 -.644E-03
   -.117E+03 0.982E+01 -.670E+01   0.141E+03 -.853E+01 0.682E+01   -.218E+02 -.125E+01 -.449E-01
   0.342E+00 -.825E+02 -.520E+01   0.866E+01 0.995E+02 0.641E+01   -.894E+01 -.163E+02 -.121E+01
   0.125E+02 -.697E+02 -.234E+02   -.221E+02 0.880E+02 0.245E+02   0.946E+01 -.176E+02 -.109E+01
   -.448E+02 0.844E+02 -.120E+02   0.548E+02 -.102E+03 0.126E+02   -.955E+01 0.174E+02 -.562E+00
   0.353E+02 0.115E+03 -.627E+01   -.464E+02 -.134E+03 0.634E+01   0.106E+02 0.183E+02 -.477E-01
   0.127E+03 -.214E+02 0.952E+01   -.154E+03 0.200E+02 -.969E+01   0.255E+02 0.132E+01 0.174E+00
   -.630E+00 -.141E+03 0.167E+03   0.291E+01 0.131E+03 -.164E+03   -.923E+00 0.719E+01 -.303E+01
   -.299E+02 0.360E+02 -.683E+02   0.281E+02 -.294E+02 0.682E+02   0.655E+00 -.405E+01 0.725E+00
   -.597E+01 -.582E+01 0.566E+01   0.568E-12 0.000E+00 0.142E-13   0.555E+01 0.574E+01 -.526E+01

 POSITION                                       TOTAL-FORCE (eV/Angst)
      2.81966      0.04857     10.13352         0.062115      0.076883      0.001338
      0.70675      1.26688     10.14456         0.035171     -0.072064     -0.001104
      1.39783      0.02752     10.13689        -0.105236     -0.001656      0.001335
      3.52013      1.29184     10.13216        -0.061564     -0.078656     -0.002952
      2.84626      2.55348     10.13529         0.039917      0.083526      0.004950
      0.68977      3.74525     10.14908         0.093693     -0.080594     -0.000696
      1.41157      2.52106     10.14429        -0.101906      0.078728     -0.002013
      3.59538      3.79819     10.13291         0.113513     -0.107809      0.014784
      2.86057      5.05635     10.15248        -0.071144      0.006510     -0.031199
      0.60002      6.18217     10.14743        -0.044842      0.016073     -0.001298
      1.39827      4.98600     10.15018         0.058232     -0.047259     -0.011029
      2.71379      7.42018     10.15662        -0.001074     -0.126902     -0.020678
      0.51076      8.62929     10.14223         0.106224      0.105991      0.002876
      1.28028      7.42229     10.14893         0.099855      0.014344     -0.023668
      3.35190      8.69146     10.15640         0.432392      0.071772      0.064463
      2.60521      9.89835     10.14022         0.046601      0.044633      0.010202
      0.46722     11.10579     10.13738         0.042891      0.062362      0.001276
      1.18367      9.87700     10.13720        -0.087862     -0.084055      0.002748
      3.29278     11.14008     10.13856        -0.023507     -0.078181      0.007917
      6.81610     12.30693     10.15477        -0.098682      0.073479      0.006725
      4.93955      1.27698     10.13567         0.182698      0.127612      0.016470
      5.64199      0.03101     10.14436         0.084773     -0.052518      0.008718
      7.74763      1.20926     10.16382        -0.120168      0.012174     -0.000207
      7.06143      2.45415     10.15770         0.276443      0.175514      0.000732
      5.62622      2.51708     10.13600        -0.260926      0.093304      0.022333
      6.83028      9.81382     10.16410         0.314049     -0.125543     -0.004103
      4.71132     11.12776     10.14694         0.117236      0.014790      0.006023
      5.39926      9.88567     10.16652        -0.454317     -0.265491     -0.004738
      7.51673     11.05872     10.15727        -0.120545     -0.131135      0.003577
     11.05512     12.31589     10.15278         0.112197      0.002139      0.001891
      9.16371      1.20422     10.16933         0.030468     -0.020921     -0.010438
      9.63470     12.29360     10.16029        -0.086787      0.005447      0.003553
     11.98520      1.23885     10.15372        -0.038026     -0.067338      0.002238
     11.27184      2.47025     10.16058         0.123875      0.103266      0.000555
      9.09699      3.65658     10.16261        -0.320191     -0.102089     -0.057796
      9.84955      2.44968     10.17031        -0.082486      0.047203     -0.016817
     11.95050      3.71760     10.15303        -0.098966     -0.104192     -0.002918
     11.18346      4.92434     10.14369        -0.072300     -0.017651      0.010526
      9.74682      4.93638     10.13653         0.050699      0.221157      0.005499
     11.86457      6.16414     10.13939         0.017246     -0.021350      0.004623
     11.06938      7.36275     10.13545        -0.030397      0.021718     -0.013353
      8.84634      8.54252     10.14422        -0.206164      0.147353      0.016813
      9.60914      7.28814     10.12367         0.035766     -0.266544      0.023336
     11.77258      8.60166     10.14044        -0.086915      0.089226     -0.004654
     11.04137      9.82031     10.14188         0.147074     -0.080164      0.000300
      8.93325     11.04971     10.15568         0.034880      0.021354      0.005770
      9.60404      9.78443     10.14691        -0.099324     -0.044698     -0.005250
     11.74538     11.07589     10.14323        -0.034886      0.078208      0.003821
      3.51791      6.28588     10.16135        -0.472176     -0.070095      0.071768
      4.99639      3.76130     10.12038        -0.699321     -0.799187     -0.109095
      7.73998      3.63376     10.15813         0.625758     -0.841779     -0.028370
      4.71812      8.70611     10.18417        -0.449242      1.068862     -0.046304
      7.44478      8.56549     10.16550         0.400637      0.577684      0.022614
      8.97050      6.06827     10.10879         0.709767      0.061779      0.010388
      6.47791      5.08782      9.87074         0.814739     -1.560812     -0.251838
      5.80371      7.05983     10.26541        -0.879957      1.745590      0.290359
    total drift:                               -0.000890     -0.003697     -0.000771

  FREE ENERGIE OF THE ION-ELECTRON SYSTEM (eV)
  free  energy   TOTEN  =      -590.02924172 eV

  energy  without entropy=     -590.02909738  energy(sigma->0) =     -590.02916955

 stress matrix after NEB project (eV)
    -39.69876     -1.57181     -0.33658
     -1.57183    -38.82906      0.72020
     -0.33772      0.72423     -0.32503
  FORCES: max atom, RMS     1.976289    0.490232
  FORCE total and by dimension    3.668557    1.745590
  Stress total and by dimension   55.587814   39.698759
 writing wavefunctions

 total charge

[...]

 magnetization (x)

# of ion       s       p       d       tot
    1        0.000   0.003   0.000   0.003
    2       -0.000  -0.003   0.000  -0.003
    3       -0.000  -0.005   0.000  -0.005
    4        0.000   0.001   0.000   0.001
    5        0.000   0.001   0.000   0.002
    6        0.000   0.001   0.000   0.001
    7       -0.000  -0.007   0.000  -0.007
    8       -0.002  -0.021   0.000  -0.022
    9        0.000  -0.010   0.000  -0.009
   10       -0.002  -0.035   0.000  -0.036
   11        0.000  -0.002   0.000  -0.002
   12        0.000  -0.013   0.000  -0.012
   13        0.000   0.001   0.000   0.001
   14        0.000  -0.002   0.000  -0.002
   15        0.000  -0.015   0.000  -0.015
   16        0.000   0.001   0.000   0.002
   17       -0.000  -0.003   0.000  -0.004
   18       -0.000  -0.007   0.000  -0.007
   19        0.000   0.000   0.000   0.000
   20       -0.000  -0.002   0.000  -0.002
   21        0.000  -0.002   0.000  -0.002
   22       -0.000  -0.003   0.000  -0.003
   23       -0.000  -0.001   0.000  -0.002
   24       -0.001  -0.005   0.000  -0.005
   25       -0.001  -0.007   0.000  -0.008
   26        0.001   0.004   0.000   0.005
   27       -0.000  -0.006   0.000  -0.006
   28        0.001   0.005   0.000   0.006
   29       -0.000  -0.004   0.000  -0.005
   30       -0.001  -0.011   0.000  -0.012
   31       -0.000   0.000   0.000   0.000
   32        0.000   0.002   0.000   0.003
   33        0.000   0.002   0.000   0.003
   34       -0.001  -0.014   0.000  -0.015
   35       -0.001  -0.019   0.000  -0.020
   36        0.000   0.002   0.000   0.002
   37        0.001   0.007   0.000   0.007
   38       -0.000  -0.010   0.000  -0.010
   39        0.001   0.002   0.000   0.004
   40       -0.000  -0.010   0.000  -0.011
   41       -0.001  -0.012   0.000  -0.013
   42       -0.001  -0.018   0.000  -0.019
   43        0.001   0.004   0.000   0.005
   44        0.001   0.007   0.000   0.007
   45       -0.001  -0.014   0.000  -0.015
   46        0.000  -0.000   0.000  -0.000
   47        0.000   0.003   0.000   0.003
   48        0.000   0.003   0.000   0.003
   49       -0.014  -0.153   0.000  -0.167
   50        0.001  -0.014   0.000  -0.013
   51       -0.004  -0.031   0.000  -0.036
   52       -0.001  -0.041   0.000  -0.042
   53       -0.009  -0.062   0.000  -0.071
   54       -0.003  -0.093   0.000  -0.095
   55        0.059   0.032  -3.093  -3.002
   56        0.103   0.096   3.671   3.871
tot          0.130  -0.480   0.579   0.229