 vasp.5.4.4.18Apr17-6-g9f103f2a35 (build Feb 25 2019 10:51:38) complex

 executed on             LinuxIFC date 2022.01.30  03:01:00

 INCAR:
 POTCAR:    PAW_PBE C 08Apr2002
 POTCAR:    PAW_PBE N 08Apr2002
 POTCAR:    PAW_PBE Zn 06Sep2000
 POTCAR:    PAW_PBE Fe 06Sep2000

 POTCAR:    PAW_PBE C 08Apr2002
   VRHFIN =C: s2p2

   TITEL  = PAW_PBE C 08Apr2002
   POMASS =   12.011; ZVAL   =    4.000    mass and valenz
   ENMAX  =  400.000; ENMIN  =  300.000 eV

 POTCAR:    PAW_PBE N 08Apr2002
   VRHFIN =N: s2p3

   TITEL  = PAW_PBE N 08Apr2002
   POMASS =   14.001; ZVAL   =    5.000    mass and valenz
   ENMAX  =  400.000; ENMIN  =  300.000 eV

 POTCAR:    PAW_PBE Zn 06Sep2000
   VRHFIN =Zn: d10 p2

   TITEL  = PAW_PBE Zn 06Sep2000
   POMASS =   65.390; ZVAL   =   12.000    mass and valenz
   ENMAX  =  276.723; ENMIN  =  207.542 eV

 POTCAR:    PAW_PBE Fe 06Sep2000
   VRHFIN =Fe:  d7 s1

   TITEL  = PAW_PBE Fe 06Sep2000
   POMASS =   55.847; ZVAL   =    8.000    mass and valenz
   ENMAX  =  267.882; ENMIN  =  200.911 eV

  PAW_PBE C 08Apr2002                   :
  PAW_PBE N 08Apr2002                   :
  PAW_PBE Zn 06Sep2000                  :
  PAW_PBE Fe 06Sep2000                  :

 POSCAR:  C  N Zn Fe
  positions in cartesian coordinates
 exchange correlation table for  LEXCH =        8
   RHO(1)=    0.500       N(1)  =     2000
   RHO(2)=  100.500       N(2)  =     4000

 VTST: version 3.2, (02/03/18)

 CHAIN: initializing optimizer

 OPT: Using VASP Conjugate-Gradient optimizer
 CHAIN: Read ICHAIN            0

 POSCAR:  C  N Zn Fe
  positions in cartesian coordinates

 ion  position               nearest neighbor table
   1  0.220  0.999  0.500-   3 1.42   4 1.43  20 1.43
   2  0.054  0.100  0.500-  34 1.42   7 1.44   3 1.44
   3  0.109  1.000  0.500-   1 1.42  18 1.44   2 1.44
   4  0.275  0.098  0.500-  22 1.42   5 1.43   1 1.43
   5  0.221  0.198  0.500-   7 1.43   4 1.43   8 1.44
   6  0.055  0.300  0.500-  38 1.43   7 1.44  11 1.45
   7  0.110  0.200  0.500-   5 1.43   6 1.44   2 1.44
   8  0.280  0.296  0.500-  55 1.37   5 1.44   9 1.46
   9  0.225  0.398  0.500-  11 1.43   8 1.46  12 1.46
  10  0.056  0.499  0.500-  42 1.43  11 1.45  15 1.45
  11  0.113  0.399  0.500-   9 1.43   6 1.45  10 1.45
  12  0.279  0.500  0.500-  56 1.32  13 1.45   9 1.46
  13  0.223  0.601  0.500-  15 1.42  16 1.45  12 1.45
  14  0.055  0.700  0.500-  46 1.42  19 1.44  15 1.45
  15  0.112  0.600  0.500-  13 1.42  14 1.45  10 1.45
  16  0.282  0.700  0.500-  53 1.43  17 1.45  13 1.45
  17  0.223  0.800  0.500-  20 1.43  19 1.43  16 1.45
  18  0.055  0.899  0.500-  50 1.43   3 1.44  19 1.44
  19  0.111  0.800  0.500-  17 1.43  18 1.44  14 1.44
  20  0.276  0.900  0.500-  28 1.43  17 1.43   1 1.43
  21  0.555  1.000  0.500-  23 1.42  24 1.42  30 1.43
  22  0.387  0.097  0.500-  26 1.41  23 1.42   4 1.42
  23  0.444  0.999  0.500-  21 1.42  22 1.42  28 1.42
  24  0.610  0.098  0.500-  21 1.42  25 1.42  32 1.43
  25  0.554  0.196  0.500-  51 1.41  24 1.42  26 1.46
  26  0.440  0.195  0.500-  55 1.37  22 1.41  25 1.46
  27  0.556  0.803  0.500-  30 1.41  54 1.43  29 1.43
  28  0.388  0.901  0.500-  29 1.41  23 1.42  20 1.43
  29  0.444  0.804  0.500-  28 1.41  53 1.42  27 1.43
  30  0.611  0.901  0.500-  27 1.41  48 1.42  21 1.43
  31  0.888  0.000  0.500-  33 1.42  50 1.44  34 1.44
  32  0.721  0.100  0.500-  24 1.43  37 1.43  33 1.44
  33  0.778  0.000  0.500-  31 1.42  48 1.43  32 1.44
  34  0.943  0.100  0.500-   2 1.42  35 1.44  31 1.44
  35  0.888  0.200  0.500-  37 1.43  34 1.44  38 1.44
  36  0.718  0.299  0.500-  51 1.41  37 1.45  41 1.46
  37  0.776  0.200  0.500-  35 1.43  32 1.43  36 1.45
  38  0.943  0.300  0.500-   6 1.43  35 1.44  39 1.45
  39  0.887  0.400  0.500-  41 1.43  38 1.45  42 1.45
  40  0.722  0.502  0.500-  52 1.38  45 1.45  41 1.45
  41  0.775  0.400  0.500-  39 1.43  40 1.45  36 1.46
  42  0.944  0.500  0.500-  10 1.43  43 1.45  39 1.45
  43  0.889  0.601  0.500-  45 1.42  46 1.44  42 1.45
  44  0.718  0.701  0.500-  54 1.43  49 1.45  45 1.45
  45  0.778  0.602  0.500-  43 1.42  40 1.45  44 1.45
  46  0.944  0.700  0.500-  14 1.42  47 1.44  43 1.44
  47  0.888  0.800  0.500-  49 1.43  50 1.44  46 1.44
  48  0.722  0.901  0.500-  30 1.42  49 1.43  33 1.43
  49  0.776  0.800  0.500-  48 1.43  47 1.43  44 1.45
  50  0.943  0.900  0.500-  18 1.43  47 1.44  31 1.44
  51  0.609  0.294  0.500-  36 1.41  25 1.41  57 1.95
  52  0.614  0.517  0.500-  40 1.38  58 1.74  57 2.08
  53  0.393  0.704  0.500-  29 1.42  16 1.43  58 1.97
  54  0.607  0.702  0.500-  27 1.43  44 1.43  58 2.01
  55  0.387  0.290  0.500-  26 1.37   8 1.37  57 2.00
  56  0.382  0.507  0.500-  12 1.32  58 1.78  57 1.99
  57  0.498  0.401  0.500-  51 1.95  56 1.99  55 2.00  52 2.08  58 2.33
  58  0.497  0.587  0.499-  52 1.74  56 1.78  53 1.97  54 2.01  57 2.33

  LATTYP: Found a triclinic cell.
 ALAT       =    17.8774918304
 B/A-ratio  =     0.7000346420
 C/A-ratio  =     1.1087174352
 COS(alpha) =     0.0000221238
 COS(beta)  =     0.0002160785
 COS(gamma) =     0.6977131310

  Lattice vectors:

 A1 = ( -12.7797030232,  12.5013560878,   0.0008675036)
 A2 = (   0.0273858459,  12.5148335793,   0.0011293400)
 A3 = (  -0.0051471487,   0.0022384398, -19.8210860944)

Analysis of symmetry for initial positions (statically):
 Subroutine PRICEL returns:
 Original cell was already a primitive cell.

 Routine SETGRP: Setting up the symmetry group for a
 triclinic supercell.

 Subroutine GETGRP returns: Found  1 space group operations
 (whereof  1 operations were pure point group operations)
 out of a pool of  2 trial point group operations.

The static configuration has the point symmetry C_1 .

Analysis of symmetry for dynamics (positions and initial velocities):
 Subroutine PRICEL returns:
 Original cell was already a primitive cell.

[...]

The dynamic configuration has the point symmetry C_1 .

Analysis of structural, dynamic, and magnetic symmetry:
 Subroutine PRICEL returns:
 Original cell was already a primitive cell.

 Routine SETGRP: Setting up the symmetry group for a
 triclinic supercell.

 Subroutine GETGRP returns: Found  1 space group operations
 (whereof  1 operations were pure point group operations)
 out of a pool of  2 trial point group operations.

The magnetic configuration has the point symmetry C_1 .

 Subroutine INISYM returns: Found  1 space group operations
 (whereof  1 operations are pure point group operations),
 and found     1 'primitive' translations

 KPOINTS: KPOINTS created by Atomic Simulation Env

Automatic generation of k-mesh.
Space group operators:
 irot       det(A)        alpha          n_x          n_y          n_z        tau_x        tau_y        tau_z
    1     1.000000     0.000000     1.000000     0.000000     0.000000     0.000000     0.000000     0.000000

 Subroutine IBZKPT returns following result:

 Found      1 irreducible k-points:

 Following reciprocal coordinates:
            Coordinates               Weight
  0.000000  0.000000  0.000000      1.000000

 Following cartesian coordinates:
            Coordinates               Weight
  0.000000  0.000000  0.000000      1.000000

 Subroutine IBZKPT_HF returns following result:

 Found      1 k-points in 1st BZ
 the following      1 k-points will be used (e.g. in the exchange kernel)
 Following reciprocal coordinates:   # in IRBZ
  0.000000  0.000000  0.000000    1.00000000   1 t-inv F

 SYSTEM =  unknown system
 POSCAR =   C  N Zn Fe

 Startparameter for this run:
   NWRITE =      2    write-flag & timer
   PREC   = accura    normal or accurate (medium, high low for compatibility)
   ISTART =      1    job   : 0-new  1-cont  2-samecut
   ICHARG =      0    charge: 1-file 2-atom 10-const
   ISPIN  =      2    spin polarized calculation?
   LNONCOLLINEAR =      F non collinear calculations
   LSORBIT =      F    spin-orbit coupling
   INIWAV =      1    electr: 0-lowe 1-rand  2-diag
   LASPH  =      T    aspherical Exc in radial PAW
   METAGGA=      F    non-selfconsistent MetaGGA calc.

 Electronic Relaxation 1
   ENCUT  =  500.0 eV  36.75 Ry    6.06 a.u.  23.35 22.82 36.14*2*pi/ulx,y,z
   ENINI  =  500.0     initial cutoff
   ENAUG  =  644.9 eV  augmentation charge cutoff
   NELM   =    250;   NELMIN=  2; NELMDL=  0     # of ELM steps
   EDIFF  = 0.1E-03   stopping-criterion for ELM
   LREAL  =      F    real-space projection
   NLSPLINE    = F    spline interpolate recip. space projectors
   LCOMPAT=      F    compatible to vasp.4.4
   GGA_COMPAT  = T    GGA compatible to vasp.4.4-vasp.4.6
   LMAXPAW     = -100 max onsite density
   LMAXMIX     =    2 max onsite mixed and CHGCAR
   VOSKOWN=      0    Vosko Wilk Nusair interpolation
   ROPT   =    0.00000   0.00000   0.00000   0.00000
 Ionic relaxation
   EDIFFG = -.3E-01   stopping-criterion for IOM
   NSW    =      0    number of steps for IOM
   NBLOCK =      1;   KBLOCK =      1    inner block; outer block
   IBRION =     -1    ionic relax: 0-MD 1-quasi-New 2-CG
   NFREE  =      1    steps in history (QN), initial steepest desc. (CG)
   ISIF   =      2    stress and relaxation
   IWAVPR =     10    prediction:  0-non 1-charg 2-wave 3-comb
   ISYM   =      3    0-nonsym 1-usesym 2-fastsym
   LCORR  =      T    Harris-Foulkes like correction to forces

   POTIM  = 0.5000    time-step for ionic-motion
   TEIN   =    0.0    initial temperature
   TEBEG  =    0.0;   TEEND  =   0.0 temperature during run
   SMASS  =  -3.00    Nose mass-parameter (am)
   estimated Nose-frequenzy (Omega)   =  0.10E-29 period in steps =****** mass=  -0.375E-26a.u.
   SCALEE = 1.0000    scale energy and forces
   NPACO  =    256;   APACO  = 16.0  distance and # of slots for P.C.
   PSTRESS=    0.0 pullay stress

  Mass of Ions in am
   POMASS =  12.01 14.00 65.39 55.85
  Ionic Valenz
   ZVAL   =   4.00  5.00 12.00  8.00
  Atomic Wigner-Seitz radii
  virtual crystal weights
   VCA    =   1.00  1.00  1.00  1.00
   NELECT =     246.0000    total number of electrons
   NUPDOWN=      -1.0000    fix difference up-down

 DOS related values:
   EMIN   =  10.00;   EMAX   =-10.00  energy-range for DOS
   EFERMI =   0.00
   ISMEAR =     0;   SIGMA  =   0.10  broadening in eV -4-tet -1-fermi 0-gaus

 Electronic relaxation 2 (details)
   IALGO  =     53    algorithm
   LDIAG  =      T    sub-space diagonalisation (order eigenvalues)
   LSUBROT=      F    optimize rotation matrix (better conditioning)
   TURBO    =      0    0=normal 1=particle mesh
   IRESTART =      0    0=no restart 2=restart with 2 vectors
   NREBOOT  =      0    no. of reboots
   NMIN     =      0    reboot dimension
   EREF     =   0.00    reference energy to select bands
   IMIX   =      4    mixing-type and parameters
     AMIX     =   0.40;   BMIX     =  1.00
     AMIX_MAG =   1.60;   BMIX_MAG =  1.00
     AMIN     =   0.10
     WC   =   100.;   INIMIX=   1;  MIXPRE=   1;  MAXMIX= -45

 Intra band minimization:
   WEIMIN = 0.0000     energy-eigenvalue tresh-hold
   EBREAK =  0.16E-06  absolut break condition
   DEPER  =   0.30     relativ break condition

   TIME   =   0.20     timestep for ELM

  volume/ion in A,a.u.               =      54.77       369.63
  Fermi-wavevector in a.u.,A,eV,Ry     =   0.697781  1.318615  6.624656  0.486898
[...]
   33        0.866   1.762   0.000   2.628
   34        0.865   1.755   0.000   2.619
   35        0.861   1.758   0.000   2.619
   36        0.859   1.741   0.000   2.600
   37        0.863   1.746   0.000   2.610
   38        0.860   1.747   0.000   2.607
   39        0.859   1.746   0.000   2.605
   40        0.865   1.779   0.000   2.644
   41        0.859   1.724   0.000   2.583
   42        0.860   1.736   0.000   2.595
   43        0.861   1.756   0.000   2.618
   44        0.859   1.741   0.000   2.600
   45        0.867   1.736   0.000   2.602
   46        0.864   1.754   0.000   2.618
   47        0.862   1.756   0.000   2.618
   48        0.865   1.772   0.000   2.637
   49        0.864   1.749   0.000   2.614
   50        0.863   1.757   0.000   2.620
   51        0.868   1.690   0.000   2.557
   52        0.927   1.502   0.000   2.429
   53        0.872   1.653   0.000   2.525
   54        0.863   1.624   0.000   2.488
   55        1.231   2.676   0.000   3.907
   56        1.258   2.566   0.000   3.824
   57        0.573   0.634   9.830  11.037
   58        0.553   0.833   6.422   7.807
tot         50.345 100.961  16.252 167.558

 magnetization (x)

[...]

  FORCE on cell =-STRESS in cart. coord.  units (eV):
  Direction    XX          YY          ZZ          XY          YZ          ZX
  Alpha Z   106.11352   106.11352   106.11352
  Ewald   47737.89224 47592.77436-56425.60535   -19.76268     7.59585     1.45468
  Hartree 47255.47807 47316.53184-46478.81140    -3.03396     7.46465     1.39336
  E(xc)    -724.72950  -725.34071  -738.70149     0.04480    -0.01459    -0.00258
  Local  -97503.78710-97458.33943 99913.04780    19.28495   -15.25965    -2.87357
  n-local   -95.00741   -89.65791   -83.28802    -0.42736     0.05332    -0.01062
  augment    41.38210    44.71155    46.57368     0.46559     0.08833     0.01222
  Kinetic  3506.99847  3547.19652  4010.90906     3.82385     0.10654     0.03563
  Fock     -370.11365  -374.28360  -350.56280    -0.49509    -0.03594    -0.01031
  Total     -45.77326   -40.29388    -0.32502    -0.09989    -0.00148    -0.00120
  in kB     -23.08450   -20.32112    -0.16391    -0.05038    -0.00075    -0.00061

 VOLUME and BASIS-vectors are now :
  energy-cutoff  :      500.00
  volume of cell :     3176.89
      direct lattice vectors                 reciprocal lattice vectors
    12.807088869  0.013477492  0.000261836     0.078081937 -0.000170863 -0.000020296
     0.027385846 12.514833579  0.001129340    -0.000084088  0.079905361  0.000009046
     0.005147149 -0.002238440 19.821086094    -0.000001027 -0.000004550  0.050451322

  length of vectors
    12.807095963 12.514863594 19.821086889     0.078082127  0.079905406  0.050451322

 FORCES acting on ions:
    Electron-Ion                     Ewald-Force                    Non-Local-Force
   0.499E+01 0.512E+01 -.237E+00   -.531E+01 -.576E+01 0.237E+00   0.233E+00 0.584E+00 -.549E-03
   0.180E+01 0.196E+01 -.200E+00   -.190E+01 -.182E+01 0.201E+00   0.153E+00 -.369E-01 -.684E-03
   0.103E+02 0.215E+01 -.161E+00   -.104E+02 -.222E+01 0.161E+00   0.156E+00 0.684E-01 0.625E-03
   0.155E+02 0.130E+02 -.193E+00   -.158E+02 -.133E+02 0.192E+00   0.229E+00 0.306E+00 0.567E-03
   0.215E+02 0.500E+01 -.177E+00   -.223E+02 -.517E+01 0.179E+00   0.714E+00 0.135E+00 -.193E-02
   0.487E+01 -.361E+01 -.201E+00   -.520E+01 0.367E+01 0.200E+00   0.304E+00 -.308E-01 0.992E-04
   0.116E+02 0.825E+00 -.218E+00   -.122E+02 -.728E+00 0.219E+00   0.475E+00 -.172E+00 -.131E-02
   0.620E+02 -.435E+01 0.797E-01   -.658E+02 0.463E+01 -.748E-01   0.406E+01 -.438E+00 -.491E-02
   0.237E+02 -.363E+00 -.142E-01   -.243E+02 0.613E+00 0.203E-01   0.379E+00 -.111E+00 -.592E-02
   0.382E+01 -.992E+00 -.218E+00   -.421E+01 0.105E+01 0.217E+00   0.658E-01 -.118E-01 0.651E-03
   0.141E+02 -.170E+01 -.190E+00   -.142E+02 0.168E+01 0.192E+00   0.233E+00 -.657E-01 -.327E-02
   0.751E+02 -.204E+01 0.913E-02   -.793E+02 0.227E+01 -.142E-01   0.407E+01 -.212E+00 0.436E-02
   0.153E+02 -.131E+02 -.175E+00   -.152E+02 0.141E+02 0.169E+00   -.250E+00 -.119E+01 0.524E-02
   -.412E+00 0.447E+00 -.233E+00   0.238E+00 -.516E+00 0.234E+00   0.116E+00 0.128E-01 -.522E-03
   0.137E+02 -.195E+01 -.268E+00   -.135E+02 0.188E+01 0.269E+00   0.134E-01 0.902E-01 -.208E-02
   0.126E+02 -.588E+01 -.309E+00   -.108E+02 0.595E+01 0.305E+00   -.153E+01 0.105E+00 0.650E-02
   0.607E+01 0.347E+01 -.299E+00   -.543E+01 -.397E+01 0.302E+00   -.447E+00 0.619E+00 -.117E-02
   0.488E+00 0.196E+01 -.152E+00   -.690E+00 -.209E+01 0.153E+00   0.172E+00 0.646E-01 -.297E-03
   0.527E+01 0.677E+00 -.191E+00   -.512E+01 -.637E+00 0.191E+00   -.255E+00 0.513E-01 0.858E-04
   0.861E+01 0.170E+01 -.343E+00   -.856E+01 -.221E+01 0.341E+00   -.127E+00 0.347E+00 0.203E-02
   -.657E+01 0.684E+01 -.376E+00   0.661E+01 -.723E+01 0.377E+00   -.242E+00 0.260E+00 -.154E-02
   0.754E+01 0.252E+02 -.247E+00   -.713E+01 -.257E+02 0.249E+00   -.260E+00 0.741E+00 -.345E-02
   0.421E+00 0.814E+01 -.373E+00   0.160E+00 -.881E+01 0.373E+00   -.343E+00 0.519E+00 0.101E-02
   -.126E+02 0.127E+02 -.130E+00   0.124E+02 -.124E+02 0.130E+00   0.396E-01 0.519E-01 -.575E-04
   -.167E+02 0.346E+02 0.106E+00   0.180E+02 -.340E+02 -.106E+00   -.107E+01 -.691E+00 0.119E-02
   -.165E+02 0.576E+02 0.259E-01   0.190E+02 -.612E+02 -.172E-01   -.264E+01 0.334E+01 -.844E-02
   -.744E+01 -.275E+01 -.539E+00   0.775E+01 0.182E+01 0.536E+00   -.696E-01 0.103E+01 0.261E-02
   0.650E+01 -.106E+01 -.528E+00   -.625E+01 0.468E+00 0.531E+00   -.170E+00 0.482E+00 -.306E-02
   0.133E+01 -.559E+01 -.741E+00   -.158E+01 0.439E+01 0.741E+00   0.346E-01 0.126E+01 -.108E-02
   -.750E+01 -.852E+00 -.513E+00   0.732E+01 0.251E+00 0.517E+00   0.305E-01 0.445E+00 -.451E-02
   -.729E+01 0.934E+00 -.180E+00   0.712E+01 -.101E+01 0.179E+00   0.801E-01 0.708E-01 0.600E-03
   -.126E+02 0.489E+01 -.148E+00   0.128E+02 -.463E+01 0.148E+00   -.640E-01 -.151E+00 0.314E-03
   -.252E+01 0.923E+00 -.237E+00   0.261E+01 -.107E+01 0.238E+00   0.660E-02 0.137E+00 -.663E-03
   0.283E+01 0.138E+01 -.186E+00   -.307E+01 -.126E+01 0.186E+00   0.180E+00 -.602E-01 -.341E-03
   -.477E+01 -.154E+01 -.160E+00   0.467E+01 0.162E+01 0.160E+00   0.160E+00 -.924E-01 -.930E-03
   -.289E+02 -.701E+01 0.375E-01   0.279E+02 0.690E+01 -.392E-01   0.684E+00 -.415E-01 0.267E-02
   -.104E+02 -.450E+00 -.894E-01   0.102E+02 0.729E+00 0.905E-01   0.114E+00 -.374E+00 -.513E-03
   0.264E+01 -.238E+01 -.171E+00   -.271E+01 0.233E+01 0.171E+00   0.801E-01 0.218E-01 0.179E-03
   -.723E+01 -.135E+01 -.156E+00   0.689E+01 0.121E+01 0.158E+00   0.120E+00 0.387E-01 -.157E-02
   -.273E+02 0.658E+01 -.205E+00   0.283E+02 -.712E+01 0.205E+00   -.101E+01 0.676E+00 -.387E-03
   -.549E+01 0.147E+01 -.546E-01   0.548E+01 -.243E+01 0.558E-01   0.234E+00 0.909E+00 -.256E-03
   0.159E+01 0.239E+00 -.200E+00   -.128E+01 -.249E+00 0.200E+00   0.241E-01 0.810E-01 0.532E-03
   -.825E+01 0.202E+00 -.238E+00   0.811E+01 -.140E+00 0.238E+00   -.460E-01 0.190E-02 -.130E-02
   -.914E+01 -.919E+00 -.142E+00   0.750E+01 0.108E+01 0.139E+00   0.135E+01 -.675E-01 0.424E-02
   -.647E+01 -.616E+01 -.183E+00   0.652E+01 0.709E+01 0.183E+00   0.139E+00 -.105E+01 -.629E-04
   0.281E+01 0.297E+00 -.216E+00   -.282E+01 -.236E+00 0.217E+00   0.111E-01 -.745E-01 0.547E-04
   -.305E+01 0.176E+01 -.228E+00   0.293E+01 -.167E+01 0.228E+00   0.294E+00 0.811E-02 -.390E-03
   -.878E+01 0.319E+00 -.326E+00   0.884E+01 -.603E+00 0.323E+00   0.712E-01 0.127E+00 0.229E-02
   -.444E+01 0.437E+01 -.308E+00   0.394E+01 -.455E+01 0.311E+00   0.324E+00 0.404E+00 -.226E-02
   0.169E+01 0.639E+00 -.179E+00   -.183E+01 -.789E+00 0.180E+00   0.114E+00 0.273E-01 -.782E-03
   -.547E+02 0.311E+01 0.419E-02   0.528E+02 0.172E+01 0.486E-04   0.197E+01 -.467E+01 -.340E-02
   -.683E+02 -.176E+02 0.535E+00   0.630E+02 0.191E+02 -.591E+00   0.545E+01 -.147E+01 0.455E-01
   0.366E+01 0.769E+01 -.935E+00   -.590E-01 -.135E+02 0.924E+00   -.393E+01 0.562E+01 -.169E-02
   -.445E+01 0.183E+02 -.170E+00   0.161E+01 -.224E+02 0.157E+00   0.322E+01 0.419E+01 0.401E-02
   0.462E+02 0.726E+01 0.660E+00   -.365E+02 0.937E+01 -.718E+00   -.922E+01 -.155E+02 0.557E-01
   0.684E+02 -.374E+02 0.825E+00   -.546E+02 0.389E+02 -.868E+00   -.134E+02 -.146E+01 0.336E-01
   -.722E+02 0.440E+02 0.320E+01   0.777E+02 -.505E+02 -.317E+01   -.553E+01 0.538E+01 -.269E-01
   -.290E+02 -.157E+03 0.643E+01   0.275E+02 0.167E+03 -.632E+01   0.103E+01 -.827E+01 -.941E-01
   0.144E+02 0.914E+01 -.842E-02   -.572E-12 0.227E-12 -.711E-14   -.135E+02 -.804E+01 -.569E-02

 POSITION                                       TOTAL-FORCE (eV/Angst)
      2.84918     12.50319      9.91225        -0.082027     -0.021998      0.000336
      0.70291      1.25099      9.91103         0.056561      0.097905     -0.000446
      1.43110     12.50940      9.91215         0.079260      0.000106      0.000405
      3.53270      1.23039      9.91063        -0.050448      0.046028      0.000028
      2.84326      2.48170      9.91024        -0.030507     -0.031848     -0.000347
      0.71464      3.75259      9.91077        -0.015283      0.022499     -0.000612
      1.41477      2.49885      9.91082        -0.057271     -0.084239     -0.000417
      3.59966      3.71046      9.90868         0.437278     -0.189816     -0.000235
      2.89177      4.98404      9.90919        -0.201506      0.137816     -0.000129
      0.73442      6.24900      9.91098        -0.328853      0.046202     -0.000518
      1.45748      4.99467      9.91048         0.130200     -0.087211     -0.001056
      3.59096      6.26447      9.90825         0.143597      0.015683     -0.000715
      2.87083      7.52586      9.91031        -0.206389     -0.218634      0.000138
      0.73234      8.76197      9.91172        -0.058002     -0.054333      0.000203
      1.45100      7.50733      9.91122         0.255716      0.025870     -0.001007
      3.62811      8.76525      9.91121         0.239927      0.179810      0.002248
      2.88148     10.01004      9.91208         0.163968      0.157689      0.001427
      0.73057     11.25468      9.91207        -0.026409     -0.058143      0.000489
      1.44964     10.00892      9.91195        -0.112250      0.094086      0.000253
      3.56771     11.26345      9.91251        -0.075775     -0.137677      0.000024
      7.13410     12.51497      9.91243        -0.214343     -0.117856     -0.000107
      4.95719      1.21854      9.91044         0.141849      0.344898     -0.001013
      5.71399     12.51204      9.91244         0.219018     -0.124864      0.000402
      7.81817      1.23332      9.91029        -0.165244      0.307313     -0.000303
      7.10305      2.46508      9.90879         0.253980     -0.155303      0.001431
      5.64779      2.44416      9.90874        -0.319701     -0.073302     -0.000170
      7.14119     10.06024      9.91205         0.232038      0.151607     -0.000405
      4.99366     11.28376      9.91288         0.081170     -0.094505      0.000120
      5.70863     10.06846      9.91263        -0.213843      0.116467     -0.001557
      7.85449     11.28193      9.91275        -0.151281     -0.139061     -0.000308
     11.38037      0.01130      9.91124        -0.102635      0.000388      0.000070
      9.24560      1.25870      9.91064         0.138225      0.104391      0.000077
      9.96128      0.00998      9.91121         0.113667     -0.005093     -0.000171
     12.08592      1.26625      9.91123        -0.037583      0.060512     -0.000469
     11.37912      2.51593      9.91091         0.064810     -0.015445     -0.000155
      9.21051      3.75588      9.90925        -0.213143     -0.161478      0.001133
      9.94778      2.50980      9.91031        -0.012322     -0.113846      0.000502
     12.09239      3.76786      9.91096         0.028086     -0.035292     -0.000235
     11.37027      5.02070      9.91072        -0.225347     -0.094303     -0.000277
      9.25733      6.29541      9.90924        -0.078176      0.186025     -0.001029
      9.94320      5.02084      9.90973         0.256364     -0.001454      0.001015
     12.10852      6.26710      9.91121         0.331967      0.076494     -0.000021
     11.39974      7.52737      9.91140        -0.197069      0.065642     -0.000495
      9.22204      8.78505      9.91073        -0.226001      0.086823      0.000670
      9.98113      7.54693      9.91056         0.198302     -0.187445     -0.000303
     12.11774      8.77825      9.91192         0.012256     -0.017555      0.000229
     11.39665     10.02381      9.91219         0.178873      0.107470     -0.000065
      9.27858     11.27999      9.91248         0.135238     -0.153167     -0.000544
      9.96541     10.02672      9.91208        -0.161376      0.241211      0.000809
     12.11011     11.26976      9.91235        -0.012764     -0.122354      0.000187
      7.80720      3.68591      9.90821         0.238388     -0.083744      0.000707
      7.88629      6.47994      9.90560         0.504972     -0.000505     -0.008910
      5.05437      8.81122      9.91147        -0.527258      0.081666     -0.012481
      7.79286      8.79037      9.90973         0.555897      0.222527     -0.008733
      4.96618      3.63006      9.90699        -0.370315     -0.183268      0.002520
      4.90829      6.34841      9.90528        -0.734865     -0.036051     -0.006026
      6.39729      5.02700      9.90419        -0.157770     -0.355651      0.002185
      6.37924      7.35633      9.89961         0.174152      0.178315      0.031651
    total drift:                               -0.005322     -0.005038      0.000088

  FREE ENERGIE OF THE ION-ELECTRON SYSTEM (eV)
  free  energy   TOTEN  =      -595.89013873 eV

  energy  without entropy=     -595.89013873  energy(sigma->0) =     -595.89013873

 stress matrix after NEB project (eV)
    -45.77326     -0.09995     -0.00120
     -0.09989    -40.29388     -0.00022
     -0.00132     -0.00148     -0.32502
  FORCES: max atom, RMS     0.735774    0.272207
  FORCE total and by dimension    2.073069    0.734865
  Stress total and by dimension   60.982894   45.773256
 writing wavefunctions

 total charge

[...]

 magnetization (x)

# of ion       s       p       d       tot
    1        0.000   0.001   0.000   0.001
    2        0.000   0.005   0.000   0.005
    3       -0.000  -0.005   0.000  -0.006
    4       -0.000  -0.004   0.000  -0.004
    5       -0.001  -0.000   0.000  -0.001
    6        0.000   0.006   0.000   0.006
    7       -0.000  -0.003   0.000  -0.003
    8       -0.000  -0.001   0.000  -0.001
    9       -0.003  -0.017   0.000  -0.020
   10        0.001   0.005   0.000   0.005
   11       -0.001  -0.013   0.000  -0.014
   12        0.003   0.009   0.000   0.012
   13       -0.005  -0.031   0.000  -0.036
   14       -0.000   0.001   0.000   0.001
   15       -0.001  -0.006   0.000  -0.007
   16        0.001   0.003   0.000   0.004
   17       -0.001  -0.000   0.000  -0.001
   18        0.000   0.005   0.000   0.006
   19       -0.000  -0.001   0.000  -0.001
   20        0.000   0.002   0.000   0.002
   21        0.000   0.005   0.000   0.005
   22        0.000   0.001   0.000   0.001
   23       -0.001  -0.024   0.000  -0.025
   24       -0.002  -0.019   0.000  -0.021
   25        0.001   0.007   0.000   0.008
   26        0.000  -0.008   0.000  -0.008
   27        0.000   0.012   0.000   0.013
   28       -0.000   0.000   0.000   0.000
   29       -0.002  -0.016   0.000  -0.018
   30       -0.001  -0.008   0.000  -0.009
   31        0.001   0.006   0.000   0.007
   32        0.001   0.011   0.000   0.012
   33       -0.001  -0.012   0.000  -0.013
   34       -0.001  -0.009   0.000  -0.010
   35        0.001   0.010   0.000   0.011
   36        0.002   0.021   0.000   0.023
   37       -0.002  -0.012   0.000  -0.014
   38       -0.001  -0.010   0.000  -0.011
   39        0.002   0.015   0.000   0.016
   40        0.004   0.039   0.000   0.042
   41       -0.003  -0.051   0.000  -0.054
   42       -0.002  -0.029   0.000  -0.031
   43        0.002   0.015   0.000   0.017
   44        0.001   0.011   0.000   0.012
   45       -0.005  -0.056   0.000  -0.061
   46       -0.001  -0.012   0.000  -0.013
   47        0.001   0.010   0.000   0.011
   48        0.001   0.008   0.000   0.009
   49       -0.001  -0.007   0.000  -0.008
   50       -0.000  -0.004   0.000  -0.004
   51       -0.019  -0.114   0.000  -0.133
   52       -0.029  -0.234   0.000  -0.263
   53       -0.018  -0.079   0.000  -0.097
   54       -0.008  -0.055   0.000  -0.063
   55       -0.014  -0.071   0.000  -0.085
   56       -0.024  -0.379   0.000  -0.402
   57        0.011   0.001  -0.108  -0.096
   58        0.044   0.004   1.656   1.704
tot         -0.071  -1.079   1.548   0.398