 vasp.5.4.4.18Apr17-6-g9f103f2a35 (build Feb 25 2019 10:51:38) complex

 executed on             LinuxIFC date 2021.08.09  10:29:07

 INCAR:
 POTCAR:    PAW_PBE C 08Apr2002
 POTCAR:    PAW_PBE N 08Apr2002
 POTCAR:    PAW_PBE Co 02Aug2007
 POTCAR:    PAW_PBE Fe 06Sep2000

 POTCAR:    PAW_PBE C 08Apr2002
   VRHFIN =C: s2p2

   TITEL  = PAW_PBE C 08Apr2002
   POMASS =   12.011; ZVAL   =    4.000    mass and valenz
   ENMAX  =  400.000; ENMIN  =  300.000 eV

 POTCAR:    PAW_PBE N 08Apr2002
   VRHFIN =N: s2p3

   TITEL  = PAW_PBE N 08Apr2002
   POMASS =   14.001; ZVAL   =    5.000    mass and valenz
   ENMAX  =  400.000; ENMIN  =  300.000 eV

 POTCAR:    PAW_PBE Co 02Aug2007
   VRHFIN =Co: d8 s1

   TITEL  = PAW_PBE Co 02Aug2007
   POMASS =   58.933; ZVAL   =    9.000    mass and valenz
   ENMAX  =  267.968; ENMIN  =  200.976 eV

 POTCAR:    PAW_PBE Fe 06Sep2000
   VRHFIN =Fe:  d7 s1

   TITEL  = PAW_PBE Fe 06Sep2000
   POMASS =   55.847; ZVAL   =    8.000    mass and valenz
   ENMAX  =  267.882; ENMIN  =  200.911 eV

  PAW_PBE C 08Apr2002                   :
  PAW_PBE N 08Apr2002                   :
  PAW_PBE Co 02Aug2007                  :
  PAW_PBE Fe 06Sep2000                  :

 POSCAR:  C  N Co Fe
  positions in cartesian coordinates
 exchange correlation table for  LEXCH =        8
   RHO(1)=    0.500       N(1)  =     2000
   RHO(2)=  100.500       N(2)  =     4000

 VTST: version 3.2, (02/03/18)

 CHAIN: initializing optimizer

 OPT: Using VASP Conjugate-Gradient optimizer
 CHAIN: Read ICHAIN            0

 POSCAR:  C  N Co Fe
  positions in cartesian coordinates

 ion  position               nearest neighbor table
   1  0.227  0.002  0.500-  18 1.44   4 1.46   3 1.46
   2  0.057  0.100  0.500-   7 1.43   3 1.43  33 1.45
   3  0.114  0.001  0.500-   2 1.43  16 1.43   1 1.46
   4  0.282  0.106  0.500-   5 1.46   1 1.46  20 1.47
   5  0.222  0.205  0.500-  53 1.38   7 1.45   4 1.46
   6  0.051  0.298  0.500-  10 1.41  37 1.43   7 1.43
   7  0.111  0.201  0.500-   2 1.43   6 1.43   5 1.45
   8  0.210  0.397  0.500-  53 1.37  10 1.40  11 1.42
   9  0.049  0.500  0.500-  41 1.41  14 1.42  10 1.43
  10  0.102  0.399  0.500-   8 1.40   6 1.41   9 1.43
  11  0.264  0.497  0.499-  55 1.33   8 1.42  12 1.43
  12  0.212  0.599  0.500-  14 1.41  50 1.42  11 1.43
  13  0.053  0.701  0.500-  14 1.41  45 1.43  17 1.44
  14  0.104  0.600  0.500-  12 1.41  13 1.41   9 1.42
  15  0.223  0.798  0.500-  50 1.43  17 1.45  18 1.46
  16  0.058  0.901  0.500-  17 1.43   3 1.43  49 1.45
  17  0.112  0.800  0.500-  16 1.43  13 1.44  15 1.45
  18  0.280  0.900  0.500-   1 1.44  28 1.46  15 1.46
  19  0.558  0.999  0.500-  22 1.42  29 1.43  21 1.44
  20  0.395  0.106  0.500-  54 1.40  21 1.46   4 1.47
  21  0.447  0.001  0.500-  19 1.44  28 1.45  20 1.46
  22  0.614  0.098  0.500-  23 1.41  19 1.42  31 1.44
  23  0.559  0.197  0.500-  54 1.38  22 1.41  24 1.45
  24  0.613  0.300  0.500-  35 1.43  51 1.43  23 1.45
  25  0.609  0.501  0.500-  56 1.40  39 1.45  51 1.46
  26  0.616  0.698  0.500-  56 1.37  43 1.42  27 1.46
  27  0.558  0.800  0.500-  29 1.42  52 1.42  26 1.46
  28  0.392  0.899  0.500-  52 1.44  21 1.45  18 1.46
  29  0.614  0.900  0.500-  27 1.42  19 1.43  47 1.44
  30  0.891  1.000  0.500-  33 1.42  49 1.42  32 1.44
  31  0.724  0.099  0.500-  36 1.42  32 1.42  22 1.44
  32  0.780  1.000  0.500-  47 1.42  31 1.42  30 1.44
  33  0.946  0.100  0.500-  30 1.42  34 1.43   2 1.45
  34  0.888  0.199  0.500-  37 1.41  36 1.43  33 1.43
  35  0.723  0.299  0.500-  40 1.42  24 1.43  36 1.43
  36  0.778  0.199  0.500-  31 1.42  34 1.43  35 1.43
  37  0.941  0.299  0.500-  34 1.41   6 1.43  38 1.43
  38  0.886  0.399  0.500-  41 1.42  40 1.43  37 1.43
  39  0.721  0.500  0.500-  40 1.43  44 1.43  25 1.45
  40  0.776  0.400  0.500-  35 1.42  38 1.43  39 1.43
  41  0.940  0.500  0.500-   9 1.41  42 1.42  38 1.42
  42  0.887  0.600  0.500-  41 1.42  44 1.43  45 1.43
  43  0.725  0.700  0.500-  44 1.42  26 1.42  48 1.43
  44  0.778  0.599  0.500-  43 1.42  42 1.43  39 1.43
  45  0.943  0.701  0.500-  46 1.42  13 1.43  42 1.43
  46  0.889  0.801  0.500-  45 1.42  49 1.43  48 1.43
  47  0.724  0.900  0.500-  32 1.42  48 1.42  29 1.44
  48  0.780  0.801  0.500-  47 1.42  43 1.43  46 1.43
  49  0.947  0.900  0.500-  30 1.42  46 1.43  16 1.45
  50  0.273  0.695  0.500-  12 1.42  15 1.43  58 1.92
  51  0.553  0.398  0.499-  24 1.43  25 1.46  57 1.91
  52  0.449  0.799  0.500-  27 1.42  28 1.44  58 1.94
  53  0.269  0.306  0.499-   8 1.37   5 1.38  57 1.96
  54  0.453  0.201  0.499-  23 1.38  20 1.40  57 1.95
  55  0.367  0.495  0.499-  11 1.33  57 1.84  58 1.94
  56  0.562  0.602  0.499-  26 1.37  25 1.40  58 2.01
  57  0.413  0.354  0.499-  55 1.84  51 1.91  54 1.95  53 1.96
  58  0.413  0.646  0.499-  50 1.92  52 1.94  55 1.94  56 2.01

  LATTYP: Found a triclinic cell.
 ALAT       =    13.0275934911
 B/A-ratio  =     0.9440522039
 C/A-ratio  =     1.5220021236
 COS(alpha) =     0.0000576846
 COS(beta)  =     0.0003172464
 COS(gamma) =     0.0018885544

  Lattice vectors:

 A1 = ( -13.0275829062,   0.0166020943,   0.0004044973)
 A2 = (  -0.0075535940,  12.2987260215,  -0.0003635864)
 A3 = (  -0.0069053147,   0.0005533568, -19.8280237493)

Analysis of symmetry for initial positions (statically):
 Subroutine PRICEL returns:
 Original cell was already a primitive cell.

 Routine SETGRP: Setting up the symmetry group for a
 triclinic supercell.

 Subroutine GETGRP returns: Found  1 space group operations
 (whereof  1 operations were pure point group operations)
 out of a pool of  2 trial point group operations.

The static configuration has the point symmetry C_1 .

Analysis of symmetry for dynamics (positions and initial velocities):
 Subroutine PRICEL returns:
 Original cell was already a primitive cell.

[...]

The dynamic configuration has the point symmetry C_1 .

Analysis of structural, dynamic, and magnetic symmetry:
 Subroutine PRICEL returns:
 Original cell was already a primitive cell.

 Routine SETGRP: Setting up the symmetry group for a
 triclinic supercell.

 Subroutine GETGRP returns: Found  1 space group operations
 (whereof  1 operations were pure point group operations)
 out of a pool of  2 trial point group operations.

The magnetic configuration has the point symmetry C_1 .

 Subroutine INISYM returns: Found  1 space group operations
 (whereof  1 operations are pure point group operations),
 and found     1 'primitive' translations

 KPOINTS: KPOINTS created by Atomic Simulation Env

Automatic generation of k-mesh.
Space group operators:
 irot       det(A)        alpha          n_x          n_y          n_z        tau_x        tau_y        tau_z
    1     1.000000     0.000000     1.000000     0.000000     0.000000     0.000000     0.000000     0.000000

 Subroutine IBZKPT returns following result:

 Found      2 irreducible k-points:

 Following reciprocal coordinates:
            Coordinates               Weight
  0.250000  0.250000  0.000000      2.000000
 -0.250000  0.250000  0.000000      2.000000

 Following cartesian coordinates:
            Coordinates               Weight
  0.019216  0.020339 -0.000006      2.000000
 -0.019164  0.020316  0.000007      2.000000

 Subroutine IBZKPT_HF returns following result:

 Found      4 k-points in 1st BZ
 the following      4 k-points will be used (e.g. in the exchange kernel)
 Following reciprocal coordinates:   # in IRBZ
  0.250000  0.250000  0.000000    0.25000000   1 t-inv F
 -0.250000  0.250000  0.000000    0.25000000   2 t-inv F
 -0.250000 -0.250000  0.000000    0.25000000   1 t-inv T
  0.250000 -0.250000  0.000000    0.25000000   2 t-inv T

 SYSTEM =  unknown system
 POSCAR =   C  N Co Fe

 Startparameter for this run:
   NWRITE =      2    write-flag & timer
   PREC   = accura    normal or accurate (medium, high low for compatibility)
   ISTART =      1    job   : 0-new  1-cont  2-samecut
   ICHARG =      0    charge: 1-file 2-atom 10-const
   ISPIN  =      2    spin polarized calculation?
   LNONCOLLINEAR =      F non collinear calculations
   LSORBIT =      F    spin-orbit coupling
   INIWAV =      1    electr: 0-lowe 1-rand  2-diag
   LASPH  =      T    aspherical Exc in radial PAW
   METAGGA=      F    non-selfconsistent MetaGGA calc.

 Electronic Relaxation 1
   ENCUT  =  500.0 eV  36.75 Ry    6.06 a.u.  23.75 22.42 36.15*2*pi/ulx,y,z
   ENINI  =  500.0     initial cutoff
   ENAUG  =  644.9 eV  augmentation charge cutoff
   NELM   =    250;   NELMIN=  2; NELMDL=  0     # of ELM steps
   EDIFF  = 0.1E-03   stopping-criterion for ELM
   LREAL  =      F    real-space projection
   NLSPLINE    = F    spline interpolate recip. space projectors
   LCOMPAT=      F    compatible to vasp.4.4
   GGA_COMPAT  = T    GGA compatible to vasp.4.4-vasp.4.6
   LMAXPAW     = -100 max onsite density
   LMAXMIX     =    2 max onsite mixed and CHGCAR
   VOSKOWN=      0    Vosko Wilk Nusair interpolation
   ROPT   =    0.00000   0.00000   0.00000   0.00000
 Ionic relaxation
   EDIFFG = -.3E-01   stopping-criterion for IOM
   NSW    =      0    number of steps for IOM
   NBLOCK =      1;   KBLOCK =      1    inner block; outer block
   IBRION =     -1    ionic relax: 0-MD 1-quasi-New 2-CG
   NFREE  =      1    steps in history (QN), initial steepest desc. (CG)
   ISIF   =      2    stress and relaxation
   IWAVPR =     10    prediction:  0-non 1-charg 2-wave 3-comb
   ISYM   =      3    0-nonsym 1-usesym 2-fastsym
   LCORR  =      T    Harris-Foulkes like correction to forces

   POTIM  = 0.5000    time-step for ionic-motion
   TEIN   =    0.0    initial temperature
   TEBEG  =    0.0;   TEEND  =   0.0 temperature during run
   SMASS  =  -3.00    Nose mass-parameter (am)
   estimated Nose-frequenzy (Omega)   =  0.10E-29 period in steps =****** mass=  -0.388E-26a.u.
   SCALEE = 1.0000    scale energy and forces
   NPACO  =    256;   APACO  = 16.0  distance and # of slots for P.C.
   PSTRESS=    0.0 pullay stress

  Mass of Ions in am
   POMASS =  12.01 14.00 58.93 55.85
  Ionic Valenz
   ZVAL   =   4.00  5.00  9.00  8.00
  Atomic Wigner-Seitz radii
  virtual crystal weights
   VCA    =   1.00  1.00  1.00  1.00
   NELECT =     245.0000    total number of electrons
   NUPDOWN=      -1.0000    fix difference up-down

 DOS related values:
   EMIN   =  10.00;   EMAX   =-10.00  energy-range for DOS
   EFERMI =   0.00
   ISMEAR =     0;   SIGMA  =   0.10  broadening in eV -4-tet -1-fermi 0-gaus

 Electronic relaxation 2 (details)
   IALGO  =     53    algorithm
   LDIAG  =      T    sub-space diagonalisation (order eigenvalues)
   LSUBROT=      F    optimize rotation matrix (better conditioning)
   TURBO    =      0    0=normal 1=particle mesh
   IRESTART =      0    0=no restart 2=restart with 2 vectors
   NREBOOT  =      0    no. of reboots
   NMIN     =      0    reboot dimension
   EREF     =   0.00    reference energy to select bands
   IMIX   =      4    mixing-type and parameters
     AMIX     =   0.40;   BMIX     =  1.00
     AMIX_MAG =   1.60;   BMIX_MAG =  1.00
     AMIN     =   0.10
     WC   =   100.;   INIMIX=   1;  MIXPRE=   1;  MAXMIX= -45

 Intra band minimization:
   WEIMIN = 0.0000     energy-eigenvalue tresh-hold
[...]
   33        0.863   1.761   0.000   2.625
   34        0.869   1.771   0.000   2.640
   35        0.869   1.768   0.000   2.637
   36        0.866   1.777   0.000   2.643
   37        0.868   1.783   0.000   2.651
   38        0.867   1.770   0.000   2.637
   39        0.863   1.756   0.000   2.619
   40        0.867   1.773   0.000   2.640
   41        0.872   1.785   0.000   2.657
   42        0.866   1.779   0.000   2.645
   43        0.870   1.791   0.000   2.661
   44        0.871   1.764   0.000   2.635
   45        0.869   1.767   0.000   2.635
   46        0.866   1.775   0.000   2.641
   47        0.867   1.772   0.000   2.639
   48        0.866   1.772   0.000   2.638
   49        0.864   1.759   0.000   2.623
   50        0.873   1.663   0.000   2.535
   51        0.868   1.634   0.000   2.502
   52        0.868   1.663   0.000   2.531
   53        1.239   2.659   0.000   3.898
   54        1.230   2.644   0.000   3.874
   55        1.255   2.580   0.000   3.835
   56        1.234   2.656   0.000   3.891
   57        0.493   0.609   7.268   8.371
   58        0.497   0.654   6.047   7.198
tot         50.964 102.912  13.315 167.191

 magnetization (x)

[...]

  FORCE on cell =-STRESS in cart. coord.  units (eV):
  Direction    XX          YY          ZZ          XY          YZ          ZX
  Alpha Z    99.29574    99.29574    99.29574
  Ewald   47345.71060 47453.21301-56006.27047   -15.22501    -3.99729    -5.59221
  Hartree 46825.08832 46842.44544-46262.45986   -15.30242    -3.31426    -3.93230
  E(xc)    -716.12372  -715.23312  -729.96856    -0.14062    -0.00680    -0.00692
  Local  -96924.63678-97019.38486 99058.50144    34.88437     7.08748     9.29002
  n-local  -126.01014  -124.67284  -108.94011     0.18947     0.08655     0.03794
  augment   169.93967   158.88714   178.19543    -1.82270     0.09747     0.03847
  Kinetic  3620.70840  3592.63351  4088.38067    -2.45620     0.06785     0.18127
  Fock     -337.53484  -331.21882  -317.15000    -0.58749    -0.00716     0.00268
  Total     -43.56274   -44.03480    -0.41571    -0.46061     0.01383     0.01894
  in kB     -21.96963   -22.20770    -0.20965    -0.23229     0.00697     0.00955

 VOLUME and BASIS-vectors are now :
  energy-cutoff  :      500.00
  volume of cell :     3176.90
      direct lattice vectors                 reciprocal lattice vectors
    13.027582906 -0.016602094 -0.000404497     0.076760269  0.000047144 -0.000026731
    -0.007553594 12.298726021 -0.000363586     0.000103619  0.081309298  0.000002233
     0.006905315 -0.000553357 19.828023749     0.000001568  0.000001492  0.050433669

  length of vectors
    13.027593491 12.298728346 19.828024959     0.076760288  0.081309364  0.050433669

 FORCES acting on ions:
    Electron-Ion                     Ewald-Force                    Non-Local-Force
   0.965E+00 0.368E+01 -.715E-01   -.336E+00 -.407E+01 0.753E-01   -.460E+00 0.290E+00 -.566E-02
   0.307E+01 0.917E+01 -.449E+00   -.308E+01 -.965E+01 0.449E+00   0.415E-02 0.399E+00 -.694E-03
   -.109E+02 0.551E+01 -.191E+00   0.111E+02 -.572E+01 0.186E+00   -.247E+00 0.211E+00 0.536E-02
   0.254E+01 0.179E+02 0.642E+00   -.235E+01 -.181E+02 -.646E+00   -.141E+00 0.138E+00 0.591E-02
   0.146E+02 0.540E+02 0.513E+00   -.157E+02 -.573E+02 -.499E+00   0.112E+01 0.339E+01 -.110E-01
   0.142E+02 0.139E+02 -.118E+01   -.144E+02 -.140E+02 0.118E+01   0.383E+00 0.148E+00 -.375E-03
   0.375E+01 0.166E+02 -.407E+00   -.384E+01 -.170E+02 0.410E+00   0.677E-01 0.393E+00 -.330E-02
   0.391E+02 -.196E+02 -.123E+00   -.408E+02 0.223E+02 0.140E+00   0.154E+01 -.314E+01 -.172E-01
   0.624E+01 -.429E+01 -.208E+01   -.640E+01 0.484E+01 0.209E+01   0.528E-01 -.394E+00 -.503E-02
   0.226E+02 -.597E+01 -.167E+01   -.230E+02 0.639E+01 0.167E+01   0.521E+00 -.442E+00 -.114E-01
   0.512E+02 -.248E+02 0.109E+01   -.518E+02 0.254E+02 -.110E+01   0.166E+01 -.506E+00 0.403E-02
   0.118E+02 -.221E+02 -.433E+00   -.112E+02 0.234E+02 0.426E+00   -.525E+00 -.820E+00 0.352E-02
   0.196E+01 -.144E+02 -.140E+01   -.152E+01 0.146E+02 0.140E+01   -.293E+00 -.272E+00 -.191E-02
   0.846E+01 -.944E+01 -.178E+01   -.836E+01 0.958E+01 0.178E+01   -.229E+00 -.112E+00 -.509E-02
   -.102E+02 -.131E+02 -.310E+00   0.109E+02 0.126E+02 0.314E+00   -.606E+00 0.397E+00 -.605E-02
   -.114E+01 -.323E+01 -.561E+00   0.142E+01 0.305E+01 0.562E+00   -.243E+00 0.194E+00 -.995E-03
   -.754E+01 -.612E+01 -.776E+00   0.823E+01 0.608E+01 0.774E+00   -.710E+00 -.247E-01 0.605E-03
   -.276E+01 0.607E+01 -.151E+00   0.302E+01 -.677E+01 0.143E+00   -.324E+00 0.753E+00 0.585E-02
   0.449E+01 0.112E+02 -.980E+00   -.467E+01 -.116E+02 0.973E+00   0.148E+00 0.249E+00 0.172E-02
   0.289E+02 0.364E+02 0.459E+00   -.308E+02 -.391E+02 -.450E+00   0.189E+01 0.274E+01 -.774E-02
   0.116E+02 0.138E+02 -.489E+00   -.121E+02 -.145E+02 0.491E+00   0.557E+00 0.730E+00 -.495E-02
   -.133E+02 0.120E+02 -.101E+01   0.136E+02 -.120E+02 0.101E+01   -.238E+00 0.127E+00 -.920E-02
   -.409E+02 0.939E+01 0.108E+00   0.444E+02 -.878E+01 -.100E+00   -.360E+01 -.746E+00 -.809E-02
   -.200E+02 -.372E+01 0.512E+00   0.192E+02 0.592E+01 -.520E+00   0.790E+00 -.179E+01 0.866E-02
   -.116E+01 0.265E+02 0.887E+00   0.182E+01 -.317E+02 -.886E+00   -.566E+00 0.491E+01 0.286E-02
   -.143E+02 -.359E+02 -.226E+00   0.157E+02 0.389E+02 0.242E+00   -.156E+01 -.338E+01 -.187E-01
   0.139E+01 -.706E+01 -.611E+00   -.319E+01 0.783E+01 0.610E+00   0.136E+01 -.570E+00 -.895E-03
   0.110E+02 0.786E+01 -.385E+00   -.111E+02 -.890E+01 0.383E+00   0.902E-01 0.904E+00 -.213E-02
   -.157E+01 -.636E+00 -.112E+01   0.152E+01 0.417E+00 0.112E+01   0.546E-01 0.276E+00 -.530E-02
   0.182E+01 0.207E+01 -.735E+00   -.167E+01 -.212E+01 0.733E+00   -.806E-01 0.605E-01 0.240E-02
   -.730E+00 0.513E+01 -.106E+01   0.866E+00 -.497E+01 0.105E+01   -.134E+00 -.146E+00 -.769E-04
   -.737E+01 0.146E+01 -.108E+01   0.731E+01 -.144E+01 0.108E+01   -.963E-02 -.491E-01 -.378E-02
   -.633E+01 0.229E+01 -.752E+00   0.638E+01 -.237E+01 0.753E+00   -.371E-01 0.457E-01 -.138E-02
   0.163E+01 0.795E+01 -.953E+00   -.183E+01 -.803E+01 0.951E+00   0.193E+00 0.112E+00 0.945E-03
   -.481E+01 0.243E+01 -.378E+00   0.425E+01 -.252E+01 0.379E+00   0.599E+00 0.910E-01 -.872E-03
   -.484E+01 -.183E+00 -.887E+00   0.470E+01 0.296E+00 0.887E+00   0.174E+00 -.111E+00 -.176E-02
   0.342E+01 0.597E+00 -.129E+01   -.390E+01 -.600E+00 0.129E+01   0.372E+00 0.194E-01 -.194E-02
   0.327E+01 0.211E+01 -.131E+01   -.344E+01 -.217E+01 0.131E+01   0.187E+00 0.152E-01 -.101E-02
   -.128E+01 0.418E+01 -.100E+00   0.799E+00 -.463E+01 0.100E+00   0.438E+00 0.446E+00 0.921E-03
   -.130E+01 -.225E+01 -.574E+00   0.107E+01 0.198E+01 0.570E+00   0.190E+00 0.191E+00 0.260E-02
   0.755E+01 -.125E+01 -.170E+01   -.738E+01 0.123E+01 0.170E+01   -.474E-01 0.185E-01 -.223E-02
   0.860E+00 -.525E+01 -.121E+01   -.514E+00 0.532E+01 0.121E+01   -.245E+00 -.117E-01 -.147E-02
   -.821E+01 -.993E+01 -.452E+00   0.886E+01 0.103E+02 0.453E+00   -.482E+00 -.328E+00 0.122E-03
   -.609E+01 0.227E+01 -.517E+00   0.617E+01 -.258E+01 0.515E+00   -.178E+00 0.328E+00 0.177E-02
   -.106E+01 -.282E+01 -.112E+01   0.109E+01 0.287E+01 0.112E+01   -.160E+00 -.954E-01 0.577E-03
   -.848E+00 -.581E+01 -.721E+00   0.903E+00 0.598E+01 0.720E+00   -.670E-01 -.162E+00 0.257E-02
   0.259E+01 -.751E+00 -.101E+01   -.270E+01 0.904E+00 0.101E+01   0.109E+00 -.104E+00 0.940E-03
   -.348E+01 -.218E+01 -.752E+00   0.366E+01 0.255E+01 0.755E+00   -.182E+00 -.374E+00 -.226E-02
   -.814E+01 0.292E+00 -.636E+00   0.834E+01 -.295E+00 0.637E+00   -.230E+00 0.188E-01 0.125E-03
   -.272E+02 -.376E+02 0.884E+00   0.327E+02 0.378E+02 -.945E+00   -.619E+01 -.113E+00 0.626E-01
   -.139E+01 -.324E+02 0.155E+01   -.805E+01 0.317E+02 -.160E+01   0.953E+01 0.520E+00 0.559E-01
   0.350E+02 0.435E+01 -.440E+00   -.387E+02 -.945E+01 0.429E+00   0.405E+01 0.553E+01 0.950E-02
   -.157E+02 0.443E+02 0.243E+01   0.377E+02 -.430E+02 -.264E+01   -.209E+02 -.112E+01 0.198E+00
   0.278E+02 0.136E+02 0.175E+01   -.375E+02 0.446E+01 -.189E+01   0.932E+01 -.171E+02 0.136E+00
   -.795E+02 -.477E+02 0.704E+01   0.998E+02 0.483E+02 -.732E+01   -.198E+02 -.659E+00 0.268E+00
   0.420E+02 0.206E+02 0.131E+01   -.620E+02 -.218E+02 -.140E+01   0.192E+02 0.132E+01 0.842E-01
   -.462E+02 0.114E+02 0.936E+01   0.487E+02 -.860E+01 -.930E+01   -.287E+01 -.345E+01 -.527E-01
   -.108E+02 -.377E+02 0.480E+01   0.808E+01 0.386E+02 -.478E+01   0.310E+01 -.173E+01 -.269E-01
   0.439E+01 0.134E+02 -.719E+00   -.338E-13 0.995E-13 0.266E-14   -.365E+01 -.128E+02 0.645E+00

 POSITION                                       TOTAL-FORCE (eV/Angst)
      2.95713      0.02582      9.90976         0.148136     -0.086046     -0.002125
      0.74481      1.22575      9.91331         0.006271     -0.061864     -0.000448
      1.49226      0.00873      9.91226        -0.138386      0.014384      0.000584
      3.67988      1.29615      9.90603         0.038133     -0.067116      0.001559
      2.89304      2.52251      9.90553         0.109072      0.304909      0.001933
      0.66251      3.66981      9.91500         0.141111     -0.001740     -0.002426
      1.44292      2.46910      9.91155        -0.029335      0.064268     -0.000137
      2.73195      4.88352      9.90574        -0.020111     -0.537479     -0.001652
      0.63412      6.14696      9.91786        -0.104830      0.137194     -0.004091
      1.33490      4.90597      9.91450         0.189023     -0.060633     -0.005564
      3.44433      6.11036      9.90023         1.146573      0.157252     -0.009806
      2.75762      7.36431      9.90821         0.096042      0.411112     -0.003855
      0.68271      8.62325      9.91658         0.133642     -0.036147     -0.002436
      1.34743      7.37540      9.91586        -0.130084      0.024051     -0.005342
      2.89990      9.81245      9.91019         0.044707     -0.116082     -0.003080
      0.74753     11.07732      9.91404         0.034386      0.024209      0.000071
      1.45103      9.83558      9.91398        -0.059672     -0.061501     -0.001372
      3.64700     11.06223      9.90964        -0.089742      0.098030     -0.001773
      7.25913     12.27720      9.91262        -0.024432     -0.070523     -0.004752
      5.14617      1.29126      9.90546         0.117912      0.178144      0.000931
      5.82659      0.00478      9.91012         0.065414      0.020378     -0.002592
      7.99881      1.20081      9.91260        -0.007561      0.147295     -0.004421
      7.28246      2.41830      9.90648        -0.381416     -0.173593     -0.000270
      7.98632      3.68348      9.90553        -0.023358      0.324743      0.001115
      7.93716      6.14944      9.90392         0.069741     -0.012872      0.003521
      8.02018      8.57067      9.90900        -0.270694     -0.634960     -0.003855
      7.27267      9.82526      9.91086        -0.366528      0.173067     -0.001820
      5.10264     11.04394      9.90969         0.051818     -0.096170     -0.003581
      7.99374     11.05295      9.91395         0.000749      0.066443     -0.003083
     11.60043     12.28140      9.91536         0.072251      0.017338      0.000517
      9.43558      1.20468      9.91508         0.003173      0.006191     -0.002296
     10.15748     12.28182      9.91586        -0.078491     -0.028481     -0.001475
     12.32619      1.20886      9.91519        -0.002906     -0.038695     -0.000458
     11.57345      2.42666      9.91580         0.004771      0.049844     -0.001041
      9.41375      3.66352      9.91130         0.073584      0.018852      0.000212
     10.14295      2.43201      9.91462         0.033297     -0.007752     -0.001411
     12.26431      3.66019      9.91646        -0.096343      0.009284     -0.001548
     11.54120      4.89480      9.91653         0.028034     -0.041467     -0.001690
      9.38919      6.13418      9.91005        -0.014255      0.020518      0.001078
     10.11335      4.90045      9.91283        -0.034501     -0.065787     -0.001063
     12.25129      6.12886      9.91790         0.123750      0.002956     -0.002220
     11.55557      7.36817      9.91655         0.088010      0.049654     -0.000413
      9.43879      8.59810      9.91243         0.137933     -0.017685      0.001149
     10.12866      7.35905      9.91309        -0.111478      0.042376     -0.000352
     12.28030      8.60191      9.91660        -0.139001     -0.045512      0.000443
     11.58369      9.83825      9.91556        -0.012042     -0.010015      0.001505
      9.43150     11.06015      9.91533         0.008348      0.043314     -0.001990
     10.15315      9.83561      9.91481        -0.018257     -0.023722      0.000524
     12.32879     11.05896      9.91503        -0.052546      0.019982      0.001244
      3.54951      8.54043      9.90498        -1.021391      0.011202      0.004803
      7.21092      4.88624      9.89991         0.582420     -0.147192      0.005003
      5.84808      9.81422      9.90869         0.561932      0.700888     -0.000290
      3.50488      3.75494      9.89983        -0.681877      0.085659      0.006917
      5.90290      2.46668      9.90130         0.400663     -0.509692      0.004678
      4.77829      6.08723      9.88815        -1.191368     -0.099315      0.015103
      7.31473      7.39834      9.90343         0.865441      0.296235      0.004646
      5.37725      4.34435      9.89048        -0.196631     -0.263552      0.021118
      5.37658      7.93719      9.89741        -0.079103     -0.204178      0.006070
    total drift:                                0.000638      0.006378     -0.002042

  FREE ENERGIE OF THE ION-ELECTRON SYSTEM (eV)
  free  energy   TOTEN  =      -607.21860612 eV

  energy  without entropy=     -607.19650772  energy(sigma->0) =     -607.20755692

 stress matrix after NEB project (eV)
    -43.56274     -0.45862      0.01894
     -0.46061    -44.03480      0.01410
      0.01855      0.01383     -0.41571
  FORCES: max atom, RMS     1.195596    0.389962
  FORCE total and by dimension    2.969861    1.191368
  Stress total and by dimension   61.946532   44.034802
 writing wavefunctions

 total charge

[...]

 magnetization (x)

# of ion       s       p       d       tot
    1        0.001   0.007   0.000   0.008
    2        0.000   0.005   0.000   0.005
    3       -0.000  -0.006   0.000  -0.006
    4       -0.000   0.001   0.000   0.001
    5        0.000   0.004   0.000   0.004
    6        0.000   0.002   0.000   0.002
    7       -0.001  -0.006   0.000  -0.007
    8        0.000   0.004   0.000   0.004
    9        0.001   0.012   0.000   0.013
   10       -0.000  -0.005   0.000  -0.006
   11        0.001  -0.006   0.000  -0.006
   12        0.002   0.025   0.000   0.027
   13        0.001   0.007   0.000   0.007
   14       -0.001  -0.011   0.000  -0.013
   15        0.001   0.007   0.000   0.008
   16        0.000   0.006   0.000   0.007
   17       -0.001  -0.008   0.000  -0.009
   18       -0.001  -0.013   0.000  -0.014
   19        0.001   0.011   0.000   0.012
   20        0.000   0.003   0.000   0.003
   21       -0.001  -0.008   0.000  -0.010
   22       -0.000  -0.003   0.000  -0.004
   23        0.000   0.002   0.000   0.002
   24        0.000   0.005   0.000   0.005
   25        0.000   0.005   0.000   0.005
   26        0.000  -0.009   0.000  -0.009
   27        0.003   0.022   0.000   0.026
   28        0.001   0.013   0.000   0.014
   29       -0.001  -0.009   0.000  -0.010
   30        0.000   0.004   0.000   0.004
   31        0.000   0.003   0.000   0.003
   32       -0.000  -0.004   0.000  -0.005
   33       -0.000  -0.004   0.000  -0.004
   34        0.000   0.005   0.000   0.006
   35       -0.000   0.000   0.000  -0.000
   36       -0.000  -0.003   0.000  -0.004
   37       -0.000  -0.004   0.000  -0.004
   38        0.000   0.002   0.000   0.003
   39       -0.000   0.004   0.000   0.004
   40       -0.000   0.001   0.000   0.001
   41       -0.001  -0.005   0.000  -0.005
   42        0.001   0.009   0.000   0.010
   43        0.001   0.005   0.000   0.006
   44       -0.001  -0.006   0.000  -0.006
   45       -0.001  -0.007   0.000  -0.008
   46        0.000   0.004   0.000   0.004
   47        0.000   0.006   0.000   0.006
   48       -0.000  -0.006   0.000  -0.007
   49       -0.000  -0.005   0.000  -0.006
   50       -0.018  -0.084   0.000  -0.102
   51       -0.007  -0.034   0.000  -0.042
   52       -0.016  -0.077   0.000  -0.094
   53       -0.001  -0.007   0.000  -0.008
   54       -0.002  -0.010   0.000  -0.011
   55       -0.004   0.002   0.000  -0.001
   56       -0.001   0.007   0.000   0.006
   57        0.007   0.006   1.184   1.198
   58        0.062   0.016   2.880   2.958
tot          0.024  -0.128   4.065   3.961