 vasp.5.4.4.18Apr17-6-g9f103f2a35 (build Feb 25 2019 10:51:38) complex

 executed on             LinuxIFC date 2021.03.10  00:18:01

 INCAR:
 POTCAR:    PAW_PBE C 08Apr2002
 POTCAR:    PAW_PBE N 08Apr2002
 POTCAR:    PAW_PBE Cu 22Jun2005
 POTCAR:    PAW_PBE Fe 06Sep2000

 POTCAR:    PAW_PBE C 08Apr2002
   VRHFIN =C: s2p2

   TITEL  = PAW_PBE C 08Apr2002
   POMASS =   12.011; ZVAL   =    4.000    mass and valenz
   ENMAX  =  400.000; ENMIN  =  300.000 eV

 POTCAR:    PAW_PBE N 08Apr2002
   VRHFIN =N: s2p3

   TITEL  = PAW_PBE N 08Apr2002
   POMASS =   14.001; ZVAL   =    5.000    mass and valenz
   ENMAX  =  400.000; ENMIN  =  300.000 eV

 POTCAR:    PAW_PBE Cu 22Jun2005
   VRHFIN =Cu: d10 p1

   TITEL  = PAW_PBE Cu 22Jun2005
   POMASS =   63.546; ZVAL   =   11.000    mass and valenz
   ENMAX  =  295.446; ENMIN  =  221.585 eV

 POTCAR:    PAW_PBE Fe 06Sep2000
   VRHFIN =Fe:  d7 s1

   TITEL  = PAW_PBE Fe 06Sep2000
   POMASS =   55.847; ZVAL   =    8.000    mass and valenz
   ENMAX  =  267.882; ENMIN  =  200.911 eV

  PAW_PBE C 08Apr2002                   :
  PAW_PBE N 08Apr2002                   :
  PAW_PBE Cu 22Jun2005                  :
  PAW_PBE Fe 06Sep2000                  :

 POSCAR:  C  N Cu Fe
  positions in cartesian coordinates
 exchange correlation table for  LEXCH =        8
   RHO(1)=    0.500       N(1)  =     2000
   RHO(2)=  100.500       N(2)  =     4000

 VTST: version 3.2, (02/03/18)

 CHAIN: initializing optimizer

 OPT: Using VASP Conjugate-Gradient optimizer
 CHAIN: Read ICHAIN            0

 POSCAR:  C  N Cu Fe
  positions in cartesian coordinates

 ion  position               nearest neighbor table
   1  0.223  0.003  0.499-   3 1.42  19 1.42   4 1.44
   2  0.058  0.102  0.500-  36 1.43   3 1.43   7 1.44
   3  0.111  0.002  0.499-   1 1.42   2 1.43  17 1.44
   4  0.278  0.104  0.500-  21 1.42   5 1.44   1 1.44
   5  0.225  0.206  0.502-   7 1.44   4 1.44   8 1.45
   6  0.057  0.303  0.500-   7 1.43  40 1.43  11 1.43
   7  0.113  0.203  0.501-   6 1.43   5 1.44   2 1.44
   8  0.282  0.307  0.504-  25 1.45   5 1.45   9 1.46
   9  0.223  0.408  0.506-  53 1.37  11 1.44   8 1.46
  10  0.054  0.503  0.500-  14 1.43  11 1.43  44 1.44
  11  0.111  0.404  0.501-   6 1.43  10 1.43   9 1.44
  12  0.222  0.602  0.504-  53 1.37  14 1.44  15 1.46
  13  0.054  0.702  0.498-  14 1.42  18 1.43  48 1.44
  14  0.110  0.603  0.500-  13 1.42  10 1.43  12 1.44
  15  0.282  0.701  0.500-  56 1.41  16 1.44  12 1.46
  16  0.224  0.800  0.499-  15 1.44  19 1.44  18 1.44
  17  0.056  0.901  0.499-  18 1.43  52 1.44   3 1.44
  18  0.111  0.801  0.498-  13 1.43  17 1.43  16 1.44
  19  0.277  0.902  0.499-  30 1.42   1 1.42  16 1.44
  20  0.555  0.001  0.500-  23 1.42  32 1.42  22 1.42
  21  0.389  0.103  0.500-   4 1.42  26 1.43  22 1.43
  22  0.444  0.002  0.500-  20 1.42  30 1.43  21 1.43
  23  0.612  0.099  0.499-  24 1.41  20 1.42  34 1.43
  24  0.557  0.198  0.499-  27 1.41  23 1.41  26 1.42
  25  0.395  0.305  0.503-  54 1.39  26 1.44   8 1.45
  26  0.446  0.202  0.500-  24 1.42  21 1.43  25 1.44
  27  0.615  0.295  0.499-  28 1.39  24 1.41  38 1.41
  28  0.560  0.392  0.500-  54 1.36  55 1.38  27 1.39
  29  0.554  0.804  0.499-  57 1.38  32 1.41  31 1.43
  30  0.388  0.903  0.499-  31 1.42  19 1.42  22 1.43
  31  0.443  0.803  0.499-  56 1.40  30 1.42  29 1.43
  32  0.610  0.902  0.499-  29 1.41  20 1.42  50 1.43
  33  0.890  0.001  0.499-  52 1.43  35 1.43  36 1.44
  34  0.723  0.100  0.499-  35 1.42  23 1.43  39 1.43
  35  0.778  1.000  0.499-  34 1.42  50 1.43  33 1.43
  36  0.946  0.101  0.499-  37 1.42   2 1.43  33 1.44
  37  0.891  0.201  0.499-  39 1.42  36 1.42  40 1.43
  38  0.725  0.298  0.498-  27 1.41  39 1.41  43 1.42
  39  0.780  0.199  0.499-  38 1.41  37 1.42  34 1.43
  40  0.945  0.301  0.499-   6 1.43  37 1.43  41 1.43
  41  0.889  0.401  0.498-  43 1.42  44 1.43  40 1.43
  42  0.718  0.497  0.498-  55 1.38  43 1.43  47 1.44
  43  0.778  0.399  0.498-  38 1.42  41 1.42  42 1.43
  44  0.942  0.502  0.498-  41 1.43  10 1.44  45 1.44
  45  0.884  0.601  0.498-  48 1.44  44 1.44  47 1.46
  46  0.714  0.701  0.498-  57 1.40  47 1.44  51 1.45
  47  0.770  0.600  0.498-  42 1.44  46 1.44  45 1.46
  48  0.941  0.700  0.497-  49 1.42  45 1.44  13 1.44
  49  0.886  0.800  0.498-  48 1.42  51 1.44  52 1.44
  50  0.721  0.901  0.499-  51 1.43  32 1.43  35 1.43
  51  0.774  0.800  0.498-  50 1.43  49 1.44  46 1.45
  52  0.944  0.900  0.499-  33 1.43  17 1.44  49 1.44
  53  0.273  0.505  0.513-  12 1.37   9 1.37  58 2.01
  54  0.455  0.398  0.505-  28 1.36  25 1.39  58 2.13
  55  0.610  0.490  0.500-  28 1.38  42 1.38  59 1.86
  56  0.393  0.703  0.500-  31 1.40  15 1.41  59 1.97
  57  0.605  0.705  0.497-  29 1.38  46 1.40  59 1.88
  58  0.395  0.510  0.576-  53 2.01  54 2.13  59 2.35
  59  0.505  0.594  0.498-  55 1.86  57 1.88  56 1.97  58 2.35

  LATTYP: Found a simple orthorhombic cell.
 ALAT       =    12.4000000000
 B/A-ratio  =     1.0330645161
 C/A-ratio  =     1.6129032258

  Lattice vectors:

 A1 = (   0.0000000000, -12.4000000000,   0.0000000000)
 A2 = ( -12.8100000000,   0.0000000000,   0.0000000000)
 A3 = (   0.0000000000,   0.0000000000, -20.0000000000)

Analysis of symmetry for initial positions (statically):
 Subroutine PRICEL returns:
 Original cell was already a primitive cell.

 Routine SETGRP: Setting up the symmetry group for a
 simple orthorhombic supercell.

 Subroutine GETGRP returns: Found  1 space group operations
 (whereof  1 operations were pure point group operations)
 out of a pool of  8 trial point group operations.

The static configuration has the point symmetry C_1 .

Analysis of symmetry for dynamics (positions and initial velocities):
 Subroutine PRICEL returns:
 Original cell was already a primitive cell.

[...]

The dynamic configuration has the point symmetry C_1 .

Analysis of structural, dynamic, and magnetic symmetry:
 Subroutine PRICEL returns:
 Original cell was already a primitive cell.

 Routine SETGRP: Setting up the symmetry group for a
 simple orthorhombic supercell.

 Subroutine GETGRP returns: Found  1 space group operations
 (whereof  1 operations were pure point group operations)
 out of a pool of  8 trial point group operations.

The magnetic configuration has the point symmetry C_1 .

 Subroutine INISYM returns: Found  1 space group operations
 (whereof  1 operations are pure point group operations),
 and found     1 'primitive' translations

 KPOINTS: KPOINTS created by Atomic Simulation Env

Automatic generation of k-mesh.
Space group operators:
 irot       det(A)        alpha          n_x          n_y          n_z        tau_x        tau_y        tau_z
    1     1.000000     0.000000     1.000000     0.000000     0.000000     0.000000     0.000000     0.000000

 Subroutine IBZKPT returns following result:

 Found      2 irreducible k-points:

 Following reciprocal coordinates:
            Coordinates               Weight
  0.250000  0.250000  0.000000      2.000000
 -0.250000  0.250000  0.000000      2.000000

 Following cartesian coordinates:
            Coordinates               Weight
  0.019516  0.020161  0.000000      2.000000
 -0.019516  0.020161  0.000000      2.000000

 Subroutine IBZKPT_HF returns following result:

 Found      4 k-points in 1st BZ
 the following      4 k-points will be used (e.g. in the exchange kernel)
 Following reciprocal coordinates:   # in IRBZ
  0.250000  0.250000  0.000000    0.25000000   1 t-inv F
 -0.250000  0.250000  0.000000    0.25000000   2 t-inv F
 -0.250000 -0.250000  0.000000    0.25000000   1 t-inv T
  0.250000 -0.250000  0.000000    0.25000000   2 t-inv T

 SYSTEM =  unknown system
 POSCAR =   C  N Cu Fe

 Startparameter for this run:
   NWRITE =      2    write-flag & timer
   PREC   = accura    normal or accurate (medium, high low for compatibility)
   ISTART =      1    job   : 0-new  1-cont  2-samecut
   ICHARG =      0    charge: 1-file 2-atom 10-const
   ISPIN  =      2    spin polarized calculation?
   LNONCOLLINEAR =      F non collinear calculations
   LSORBIT =      F    spin-orbit coupling
   INIWAV =      1    electr: 0-lowe 1-rand  2-diag
   LASPH  =      T    aspherical Exc in radial PAW
   METAGGA=      F    non-selfconsistent MetaGGA calc.

 Electronic Relaxation 1
   ENCUT  =  500.0 eV  36.75 Ry    6.06 a.u.  23.36 22.61 36.46*2*pi/ulx,y,z
   ENINI  =  500.0     initial cutoff
   ENAUG  =  644.9 eV  augmentation charge cutoff
   NELM   =    250;   NELMIN=  2; NELMDL=  0     # of ELM steps
   EDIFF  = 0.1E-03   stopping-criterion for ELM
   LREAL  =      F    real-space projection
   NLSPLINE    = F    spline interpolate recip. space projectors
   LCOMPAT=      F    compatible to vasp.4.4
   GGA_COMPAT  = T    GGA compatible to vasp.4.4-vasp.4.6
   LMAXPAW     = -100 max onsite density
   LMAXMIX     =    2 max onsite mixed and CHGCAR
   VOSKOWN=      0    Vosko Wilk Nusair interpolation
   ROPT   =    0.00000   0.00000   0.00000   0.00000
 Ionic relaxation
   EDIFFG = -.3E-01   stopping-criterion for IOM
   NSW    =      0    number of steps for IOM
   NBLOCK =      1;   KBLOCK =      1    inner block; outer block
   IBRION =     -1    ionic relax: 0-MD 1-quasi-New 2-CG
   NFREE  =      1    steps in history (QN), initial steepest desc. (CG)
   ISIF   =      2    stress and relaxation
   IWAVPR =     10    prediction:  0-non 1-charg 2-wave 3-comb
   ISYM   =      3    0-nonsym 1-usesym 2-fastsym
   LCORR  =      T    Harris-Foulkes like correction to forces

   POTIM  = 0.5000    time-step for ionic-motion
   TEIN   =    0.0    initial temperature
   TEBEG  =    0.0;   TEEND  =   0.0 temperature during run
   SMASS  =  -3.00    Nose mass-parameter (am)
   estimated Nose-frequenzy (Omega)   =  0.10E-29 period in steps =****** mass=  -0.375E-26a.u.
   SCALEE = 1.0000    scale energy and forces
   NPACO  =    256;   APACO  = 16.0  distance and # of slots for P.C.
   PSTRESS=    0.0 pullay stress

  Mass of Ions in am
   POMASS =  12.01 14.00 63.55 55.85
  Ionic Valenz
   ZVAL   =   4.00  5.00 11.00  8.00
  Atomic Wigner-Seitz radii
  virtual crystal weights
   VCA    =   1.00  1.00  1.00  1.00
   NELECT =     252.0000    total number of electrons
   NUPDOWN=      -1.0000    fix difference up-down

 DOS related values:
   EMIN   =  10.00;   EMAX   =-10.00  energy-range for DOS
   EFERMI =   0.00
   ISMEAR =     0;   SIGMA  =   0.10  broadening in eV -4-tet -1-fermi 0-gaus

 Electronic relaxation 2 (details)
   IALGO  =     53    algorithm
   LDIAG  =      T    sub-space diagonalisation (order eigenvalues)
   LSUBROT=      F    optimize rotation matrix (better conditioning)
   TURBO    =      0    0=normal 1=particle mesh
   IRESTART =      0    0=no restart 2=restart with 2 vectors
   NREBOOT  =      0    no. of reboots
   NMIN     =      0    reboot dimension
   EREF     =   0.00    reference energy to select bands
   IMIX   =      4    mixing-type and parameters
     AMIX     =   0.40;   BMIX     =  1.00
     AMIX_MAG =   1.60;   BMIX_MAG =  1.00
     AMIN     =   0.10
     WC   =   100.;   INIMIX=   1;  MIXPRE=   1;  MAXMIX= -45

 Intra band minimization:
   WEIMIN = 0.0000     energy-eigenvalue tresh-hold
   EBREAK =  0.16E-06  absolut break condition
[...]
   41        0.867   1.761   0.000   2.628
   42        0.858   1.715   0.000   2.573
   43        0.864   1.784   0.000   2.648
   44        0.861   1.767   0.000   2.628
   45        0.858   1.737   0.000   2.595
   46        0.850   1.696   0.000   2.546
   47        0.850   1.755   0.000   2.605
   48        0.861   1.764   0.000   2.626
   49        0.863   1.752   0.000   2.615
   50        0.868   1.767   0.000   2.635
   51        0.860   1.763   0.000   2.623
   52        0.862   1.760   0.000   2.622
   53        1.234   2.665   0.000   3.899
   54        1.234   2.661   0.000   3.896
   55        1.232   2.709   0.000   3.941
   56        1.218   2.641   0.000   3.859
   57        1.224   2.667   0.000   3.891
   58        0.319   0.205   9.440   9.964
   59        0.439   0.534   6.272   7.244
tot         51.785 105.634  15.712 173.131

 magnetization (x)

[...]

  FORCE on cell =-STRESS in cart. coord.  units (eV):
  Direction    XX          YY          ZZ          XY          YZ          ZX
  Alpha Z   105.38312   105.38312   105.38312
  Ewald   49887.67519 49817.54497-58465.38970    33.74152    10.20687   -51.77360
  Hartree 49566.14177 49542.55397-48458.52703     0.72362    -3.78470   -57.17963
  E(xc)    -746.87666  -747.13691  -761.16415     0.17463     0.23322     0.14189
  Local  ************************103715.34174   -22.30790    -4.07454   111.40581
  n-local   -91.54063   -91.91704   -85.47459     1.18272    -1.00659    -0.59916
  augment    99.02100    99.93307   102.16289    -0.71327    -0.29320     0.16902
  Kinetic  3714.46808  3722.56457  4242.65328   -25.01102    -1.43900    -2.22289
  Fock     -421.48535  -422.23440  -395.96498    -0.21972    -0.32029    -0.47570
  Total     -44.58109   -44.64658    -0.97941   -12.42942    -0.47824    -0.53427
  in kB     -22.48332   -22.51635    -0.49394    -6.26846    -0.24119    -0.26945

 VOLUME and BASIS-vectors are now :
  energy-cutoff  :      500.00
  volume of cell :     3176.88
      direct lattice vectors                 reciprocal lattice vectors
    12.810000000  0.000000000  0.000000000     0.078064012  0.000000000  0.000000000
     0.000000000 12.400000000  0.000000000     0.000000000  0.080645161  0.000000000
     0.000000000  0.000000000 20.000000000     0.000000000  0.000000000  0.050000000

  length of vectors
    12.810000000 12.400000000 20.000000000     0.078064012  0.080645161  0.050000000

 FORCES acting on ions:
    Electron-Ion                     Ewald-Force                    Non-Local-Force
   0.669E+01 -.638E+01 0.874E+01   -.670E+01 0.626E+01 -.878E+01   0.142E+00 -.106E+00 0.406E-01
   0.471E+00 -.239E+00 0.449E+01   -.275E+00 0.162E+00 -.452E+01   -.159E+00 0.237E-01 0.134E-01
   0.782E+01 0.972E+00 0.584E+01   -.783E+01 -.105E+01 -.582E+01   -.784E-01 0.657E-01 -.206E-01
   0.152E+02 0.692E+01 0.739E+01   -.154E+02 -.698E+01 -.738E+01   0.268E+00 0.141E+00 -.955E-03
   0.103E+02 0.104E+02 0.527E+01   -.102E+02 -.104E+02 -.529E+01   -.274E-01 -.199E-01 0.268E-01
   0.760E+01 0.829E+01 0.134E+02   -.745E+01 -.861E+01 -.135E+02   -.687E-01 0.290E+00 0.111E+00
   0.710E+01 0.114E+02 0.583E+01   -.709E+01 -.114E+02 -.578E+01   -.503E-01 0.981E-01 -.352E-01
   0.259E+02 0.322E+02 0.104E+02   -.260E+02 -.322E+02 -.106E+02   0.220E+00 -.114E+00 0.212E+00
   0.447E+02 0.568E+02 0.143E+02   -.462E+02 -.594E+02 -.147E+02   0.153E+01 0.279E+01 0.494E+00
   0.224E+02 0.737E+00 0.127E+02   -.225E+02 -.549E+00 -.125E+02   0.176E+00 -.129E+00 -.151E+00
   0.250E+02 0.156E+02 0.184E+02   -.252E+02 -.159E+02 -.185E+02   0.180E+00 0.263E+00 0.869E-01
   0.487E+02 -.496E+02 0.288E+02   -.502E+02 0.526E+02 -.294E+02   0.157E+01 -.265E+01 0.553E+00
   0.157E+02 -.107E+02 0.201E+02   -.158E+02 0.109E+02 -.201E+02   0.174E+00 -.189E+00 0.310E-01
   0.260E+02 -.109E+02 0.223E+02   -.260E+02 0.115E+02 -.224E+02   -.160E-01 -.513E+00 0.137E+00
   0.456E+02 -.230E+02 0.334E+02   -.490E+02 0.227E+02 -.336E+02   0.291E+01 0.239E+00 0.202E+00
   0.220E+02 -.172E+02 0.189E+02   -.222E+02 0.170E+02 -.190E+02   0.220E+00 -.429E-01 0.381E-01
   0.465E+01 -.477E+01 0.846E+01   -.450E+01 0.480E+01 -.848E+01   -.122E+00 0.159E-01 0.274E-01
   0.933E+01 -.992E+01 0.138E+02   -.954E+01 0.972E+01 -.137E+02   0.157E+00 0.115E+00 -.726E-01
   0.169E+02 -.122E+02 0.130E+02   -.173E+02 0.126E+02 -.131E+02   0.290E+00 -.201E+00 0.748E-01
   -.347E+01 -.465E+01 0.406E+01   0.316E+01 0.465E+01 -.401E+01   0.281E+00 -.101E+00 -.536E-01
   0.555E+01 0.838E+01 0.936E+01   -.605E+01 -.871E+01 -.934E+01   0.374E+00 0.303E+00 -.101E-01
   0.586E+01 -.557E+01 0.733E+01   -.572E+01 0.560E+01 -.735E+01   -.658E-01 -.430E-01 0.225E-01
   -.982E+01 0.918E+01 0.741E+01   0.997E+01 -.958E+01 -.743E+01   -.977E-01 0.473E+00 0.202E-01
   -.486E+01 0.258E+02 0.147E+02   0.469E+01 -.265E+02 -.146E+02   0.231E+00 0.620E+00 -.285E-01
   0.351E+02 0.590E+02 0.300E+02   -.375E+02 -.621E+02 -.304E+02   0.221E+01 0.289E+01 0.355E+00
   0.912E+01 0.288E+02 0.170E+02   -.958E+01 -.291E+02 -.170E+02   0.402E+00 0.408E+00 0.546E-01
   -.273E+02 0.361E+02 0.244E+02   0.280E+02 -.372E+02 -.245E+02   -.668E+00 0.107E+01 0.518E-01
   -.453E+02 0.547E+02 0.376E+02   0.470E+02 -.586E+02 -.377E+02   -.166E+01 0.395E+01 0.175E+00
   -.384E+01 -.524E+02 0.138E+02   0.180E+01 0.556E+02 -.138E+02   0.173E+01 -.306E+01 0.166E-02
   0.794E+01 -.236E+02 0.964E+01   -.794E+01 0.239E+02 -.955E+01   0.159E+00 -.366E+00 -.811E-01
   0.416E+00 -.535E+02 0.182E+02   0.912E+00 0.564E+02 -.183E+02   -.996E+00 -.258E+01 0.164E+00
   -.131E+02 -.191E+02 0.371E+01   0.130E+02 0.196E+02 -.369E+01   0.239E-01 -.415E+00 -.312E-01
   -.568E+01 -.202E+01 0.407E+01   0.585E+01 0.195E+01 -.409E+01   -.127E+00 0.348E-01 0.681E-02
   -.103E+02 0.422E+01 0.573E+01   0.104E+02 -.434E+01 -.574E+01   -.811E-01 0.149E+00 -.210E-02
   -.102E+02 0.106E+01 0.363E+01   0.104E+02 -.109E+01 -.364E+01   -.217E+00 -.347E-01 0.512E-02
   -.139E+01 0.561E+01 0.443E+01   0.156E+01 -.575E+01 -.445E+01   -.167E+00 0.131E+00 0.655E-02
   -.814E+01 0.396E+01 0.718E+01   0.840E+01 -.402E+01 -.720E+01   -.242E+00 0.867E-01 0.587E-02
   -.253E+02 0.130E+02 0.160E+02   0.259E+02 -.132E+02 -.161E+02   -.664E+00 0.184E+00 0.496E-01
   -.125E+02 0.118E+02 0.883E+01   0.127E+02 -.121E+02 -.885E+01   -.262E+00 0.324E+00 0.574E-02
   -.101E+01 0.469E+01 0.111E+02   0.113E+01 -.475E+01 -.111E+02   -.179E+00 0.578E-01 0.389E-01
   -.946E+01 0.300E+01 0.115E+02   0.997E+01 -.283E+01 -.115E+02   -.409E+00 -.128E+00 0.966E-03
   -.626E+02 -.111E+02 0.171E+02   0.668E+02 0.116E+02 -.171E+02   -.412E+01 -.522E+00 -.627E-02
   -.271E+02 0.357E+01 0.136E+02   0.277E+02 -.366E+01 -.136E+02   -.605E+00 0.193E+00 -.107E-01
   0.520E+00 -.301E+01 0.122E+02   -.642E+00 0.328E+01 -.123E+02   0.931E-01 -.276E+00 0.280E-01
   -.147E+01 -.392E+01 0.142E+02   0.166E+01 0.414E+01 -.142E+02   -.386E-01 -.139E+00 0.450E-02
   -.506E+02 -.367E+01 0.151E+02   0.541E+02 0.349E+01 -.151E+02   -.361E+01 0.244E+00 0.834E-02
   -.265E+02 -.686E+01 0.163E+02   0.268E+02 0.713E+01 -.164E+02   -.291E+00 -.245E+00 0.624E-01
   -.181E+01 -.205E+01 0.157E+02   0.189E+01 0.195E+01 -.157E+02   -.185E+00 0.532E-01 0.255E-01
   -.448E+01 -.789E+01 0.961E+01   0.478E+01 0.768E+01 -.965E+01   -.294E+00 0.120E+00 0.295E-01
   -.159E+02 -.100E+02 0.444E+01   0.161E+02 0.104E+02 -.450E+01   -.258E+00 -.169E+00 0.499E-01
   -.209E+02 -.335E+01 0.795E+01   0.214E+02 0.347E+01 -.791E+01   -.396E+00 -.218E+00 -.336E-01
   -.171E+01 0.150E+01 0.651E+01   0.182E+01 -.149E+01 -.651E+01   -.125E+00 0.348E-01 -.545E-02
   0.320E+02 0.508E+01 0.195E+02   -.772E+01 -.490E+01 -.190E+02   -.228E+02 -.329E+00 -.588E+00
   0.345E+02 0.236E+02 0.784E+02   -.469E+02 -.256E+01 -.793E+02   0.118E+02 -.196E+02 0.958E+00
   -.629E+02 -.287E+02 0.363E+02   0.542E+02 0.443E+02 -.357E+02   0.856E+01 -.151E+02 -.475E+00
   0.209E+02 -.623E+01 0.550E+02   -.113E+02 -.107E+02 -.564E+02   -.896E+01 0.157E+02 0.137E+01
   -.418E+02 0.218E+01 0.388E+02   0.334E+02 -.168E+02 -.404E+02   0.835E+01 0.139E+02 0.147E+01
   0.941E+01 -.187E+02 -.109E+04   -.120E+02 0.181E+02 0.109E+04   0.219E+01 0.147E+00 0.868E+01
   -.563E+01 -.298E+02 0.186E+03   0.943E+01 0.351E+02 -.184E+03   -.457E+01 -.502E+01 -.226E+01
   0.865E+01 0.761E+01 -.127E+02   -.455E-12 -.995E-13 0.000E+00   -.836E+01 -.720E+01 0.118E+02

 POSITION                                       TOTAL-FORCE (eV/Angst)
      2.85230      0.03133      9.98845         0.127358     -0.245795      0.008699
      0.73721      1.26766      9.99499         0.023750     -0.058459     -0.009142
      1.42741      0.01887      9.98751        -0.087570     -0.003689     -0.004163
      3.56640      1.28646     10.00785         0.087119      0.090626      0.009002
      2.88556      2.55137     10.03537         0.022556     -0.063790      0.007076
      0.72867      3.75317      9.99362         0.079537     -0.017081      0.010510
      1.45007      2.52097     10.01046        -0.041726      0.057689      0.008351
      3.60886      3.81040     10.08608         0.100675     -0.096635      0.001000
      2.85124      5.05837     10.12477         0.112296      0.400021      0.067468
      0.69303      6.23994     10.00033         0.063429      0.052290     -0.004362
      1.42058      5.00632     10.02127        -0.034028     -0.033689      0.008438
      2.84639      7.46002     10.07826         0.105784      0.145800     -0.002882
      0.68775      8.70041      9.95856         0.125405     -0.010140      0.036416
      1.41249      7.47773      9.99642        -0.100633      0.064431      0.066305
      3.61785      8.69520     10.00609        -0.331920     -0.064199     -0.020314
      2.86662      9.92369      9.97672         0.036860     -0.239631      0.015475
      0.71618     11.17154      9.97403         0.019706      0.046768      0.001740
      1.42489      9.92634      9.96894        -0.054820     -0.082688      0.001802
      3.55255     11.19034      9.97950        -0.094984      0.261635      0.010312
      7.11089      0.01601      9.99382        -0.016761     -0.102435     -0.000972
      4.98518      1.27201     10.00204        -0.112628     -0.009101      0.008242
      5.69152      0.02921      9.99341         0.075175     -0.017632     -0.003055
      7.84269      1.23101      9.98674         0.042679      0.108315     -0.000175
      7.13636      2.45570      9.98746         0.071663     -0.028564      0.004304
      5.05540      3.77657     10.05641        -0.009943     -0.023968      0.033270
      5.71351      2.50161     10.00748        -0.033627      0.098797      0.015435
      7.87745      3.65741      9.97271         0.001678      0.005304     -0.003030
      7.17531      4.85998     10.00872        -0.072450      0.269704      0.044853
      7.09763      9.96740      9.97257        -0.216711     -0.029481     -0.032721
      4.97602     11.19184      9.98808         0.162455     -0.139104      0.000190
      5.66940      9.95512      9.98244         0.282041      0.163058      0.052704
      7.81440     11.18374      9.98835        -0.047449      0.106664     -0.016431
     11.40027      0.00667      9.98167         0.039853     -0.035506     -0.013497
      9.26794      1.23625      9.98195        -0.077223      0.029540     -0.009153
      9.97083     12.39869      9.98340        -0.078444     -0.066251     -0.011540
     12.12057      1.24951      9.98588         0.002337      0.005433     -0.010248
     11.41470      2.48731      9.97775         0.001900      0.027569     -0.005291
      9.28975      3.69401      9.96351        -0.087824     -0.029380      0.005000
      9.99326      2.46743      9.97298        -0.038060      0.039288     -0.008080
     12.10948      3.73840      9.97506        -0.062759     -0.001330      0.001745
     11.38474      4.97509      9.96755         0.079649      0.043429      0.002134
      9.19317      6.16202      9.96726        -0.134957     -0.065745     -0.004247
      9.96002      4.95107      9.96405        -0.035841      0.106124     -0.010519
     12.06763      6.22892      9.96995        -0.026928     -0.027374      0.001639
     11.31828      7.45420      9.95323         0.154817      0.072281      0.012601
      9.14497      8.69208      9.95305        -0.271775      0.077955      0.022748
      9.86321      7.43942      9.95184        -0.012914      0.011958      0.012927
     12.05707      8.68485      9.94994        -0.123489     -0.038700      0.005869
     11.35238      9.92136      9.96074        -0.012025     -0.100507     -0.006931
      9.24063     11.17255      9.98080        -0.055068      0.125448     -0.013077
      9.91404      9.91584      9.96625         0.029522     -0.100214      0.000723
     12.09078     11.16012      9.97260        -0.020958      0.059445     -0.003399
      3.49470      6.26354     10.25239        -0.503576     -0.172643     -0.153983
      5.82285      4.93570     10.09200         0.489903     -0.284037      0.146313
      7.81796      6.07655      9.99160         0.538110     -0.877645      0.045501
      5.03045      8.71256      9.99067        -0.190641      0.107774      0.189690
      7.74598      8.74400      9.94011         0.658888      0.486552     -0.034498
      5.06166      6.32656     11.51016        -0.305392     -0.297698     -0.193242
      6.47260      7.36504      9.95075        -0.242017      0.299212     -0.283529
    total drift:                                0.004335     -0.004421     -0.013940

  FREE ENERGIE OF THE ION-ELECTRON SYSTEM (eV)
  free  energy   TOTEN  =      -612.91557859 eV

  energy  without entropy=     -612.91524895  energy(sigma->0) =     -612.91541377

 stress matrix after NEB project (eV)
    -44.58109    -12.42943     -0.53427
    -12.42942    -44.64658     -0.48137
     -0.53223     -0.47824     -0.97941
  FORCES: max atom, RMS     1.030482    0.266371
  FORCE total and by dimension    2.046038    0.877645
  Stress total and by dimension   65.511529   44.646578
 writing wavefunctions
 vacuum level on the upper side and lower side of the slab         1.376         1.604

 total charge

[...]

 magnetization (x)

# of ion       s       p       d       tot
    1        0.000   0.001   0.000   0.001
    2       -0.000  -0.002   0.000  -0.002
    3        0.000   0.002   0.000   0.002
    4        0.000   0.002   0.000   0.002
    5       -0.000  -0.002   0.000  -0.002
    6       -0.000  -0.001   0.000  -0.002
    7        0.000   0.004   0.000   0.004
    8        0.000   0.004   0.000   0.004
    9       -0.000  -0.001   0.000  -0.001
   10       -0.000  -0.000   0.000  -0.000
   11        0.000   0.004   0.000   0.004
   12        0.000   0.007   0.000   0.007
   13        0.000   0.002   0.000   0.002
   14       -0.000  -0.000   0.000  -0.000
   15       -0.001  -0.002   0.000  -0.003
   16       -0.000   0.001   0.000   0.001
   17       -0.000  -0.001   0.000  -0.001
   18        0.000   0.002   0.000   0.002
   19       -0.000  -0.000   0.000  -0.000
   20        0.000   0.004   0.000   0.004
   21       -0.000  -0.001   0.000  -0.001
   22       -0.000   0.000   0.000   0.000
   23        0.000   0.002   0.000   0.002
   24       -0.000   0.000   0.000  -0.000
   25       -0.000  -0.001   0.000  -0.002
   26        0.000   0.002   0.000   0.002
   27       -0.000   0.001   0.000   0.001
   28        0.000   0.004   0.000   0.004
   29        0.000   0.005   0.000   0.005
   30       -0.000   0.001   0.000   0.001
   31       -0.000  -0.001   0.000  -0.002
   32       -0.000  -0.001   0.000  -0.001
   33       -0.000  -0.002   0.000  -0.002
   34       -0.000   0.001   0.000   0.001
   35        0.000   0.002   0.000   0.002
   36        0.000   0.004   0.000   0.004
   37       -0.000  -0.003   0.000  -0.003
   38        0.000   0.002   0.000   0.002
   39        0.000   0.001   0.000   0.001
   40        0.000   0.002   0.000   0.003
   41       -0.000  -0.003   0.000  -0.003
   42       -0.000  -0.001   0.000  -0.002
   43        0.000   0.003   0.000   0.003
   44        0.000   0.004   0.000   0.004
   45       -0.000  -0.001   0.000  -0.001
   46       -0.000  -0.004   0.000  -0.004
   47        0.000   0.005   0.000   0.005
   48        0.000   0.004   0.000   0.005
   49       -0.000  -0.001   0.000  -0.001
   50       -0.000  -0.004   0.000  -0.004
   51        0.000   0.004   0.000   0.004
   52        0.000   0.002   0.000   0.002
   53       -0.001   0.004   0.000   0.004
   54       -0.001   0.003   0.000   0.002
   55       -0.005  -0.020   0.000  -0.025
   56       -0.002   0.011   0.000   0.009
   57       -0.006  -0.029   0.000  -0.035
   58       -0.018  -0.008  -0.002  -0.028
   59        0.019   0.010   1.908   1.936
tot         -0.015   0.019   1.906   1.911