 vasp.5.4.4.18Apr17-6-g9f103f2a35 (build Feb 25 2019 10:51:38) complex

 executed on             LinuxIFC date 2021.03.10  00:07:10

 INCAR:
 POTCAR:    PAW_PBE C 08Apr2002
 POTCAR:    PAW_PBE N 08Apr2002
 POTCAR:    PAW_PBE Co 02Aug2007
 POTCAR:    PAW_PBE Fe 06Sep2000

 POTCAR:    PAW_PBE C 08Apr2002
   VRHFIN =C: s2p2

   TITEL  = PAW_PBE C 08Apr2002
   POMASS =   12.011; ZVAL   =    4.000    mass and valenz
   ENMAX  =  400.000; ENMIN  =  300.000 eV

 POTCAR:    PAW_PBE N 08Apr2002
   VRHFIN =N: s2p3

   TITEL  = PAW_PBE N 08Apr2002
   POMASS =   14.001; ZVAL   =    5.000    mass and valenz
   ENMAX  =  400.000; ENMIN  =  300.000 eV

 POTCAR:    PAW_PBE Co 02Aug2007
   VRHFIN =Co: d8 s1

   TITEL  = PAW_PBE Co 02Aug2007
   POMASS =   58.933; ZVAL   =    9.000    mass and valenz
   ENMAX  =  267.968; ENMIN  =  200.976 eV

 POTCAR:    PAW_PBE Fe 06Sep2000
   VRHFIN =Fe:  d7 s1

   TITEL  = PAW_PBE Fe 06Sep2000
   POMASS =   55.847; ZVAL   =    8.000    mass and valenz
   ENMAX  =  267.882; ENMIN  =  200.911 eV

  PAW_PBE C 08Apr2002                   :
  PAW_PBE N 08Apr2002                   :
  PAW_PBE Co 02Aug2007                  :
  PAW_PBE Fe 06Sep2000                  :

 POSCAR:  C  N Co Fe
  positions in cartesian coordinates
 exchange correlation table for  LEXCH =        8
   RHO(1)=    0.500       N(1)  =     2000
   RHO(2)=  100.500       N(2)  =     4000

 VTST: version 3.2, (02/03/18)

 CHAIN: initializing optimizer

 OPT: Using VASP Conjugate-Gradient optimizer
 CHAIN: Read ICHAIN            0

 POSCAR:  C  N Co Fe
  positions in cartesian coordinates

 ion  position               nearest neighbor table
   1  0.223  0.002  0.499-  19 1.42   3 1.42   4 1.44
   2  0.057  0.102  0.498-  36 1.43   3 1.43   7 1.44
   3  0.111  0.002  0.498-   1 1.42   2 1.43  17 1.43
   4  0.278  0.103  0.501-  21 1.42   5 1.44   1 1.44
   5  0.225  0.205  0.504-   7 1.44   4 1.44   8 1.45
   6  0.057  0.303  0.499-   7 1.43  40 1.43  11 1.43
   7  0.113  0.203  0.501-   6 1.43   5 1.44   2 1.44
   8  0.282  0.306  0.510-  25 1.45   5 1.45   9 1.46
   9  0.222  0.407  0.509-  53 1.38  11 1.43   8 1.46
  10  0.054  0.503  0.500-  14 1.43  44 1.44  11 1.44
  11  0.111  0.404  0.502-   6 1.43   9 1.43  10 1.44
  12  0.222  0.602  0.504-  53 1.38  14 1.43  15 1.45
  13  0.054  0.702  0.497-  14 1.42  18 1.43  48 1.44
  14  0.110  0.603  0.500-  13 1.42  10 1.43  12 1.43
  15  0.282  0.702  0.500-  56 1.41  16 1.44  12 1.45
  16  0.223  0.801  0.498-  19 1.44  18 1.44  15 1.44
  17  0.056  0.901  0.497-  18 1.43  52 1.43   3 1.43
  18  0.111  0.801  0.497-  13 1.43  17 1.43  16 1.44
  19  0.277  0.902  0.498-   1 1.42  30 1.43  16 1.44
  20  0.555  0.001  0.496-  32 1.41  23 1.42  22 1.42
  21  0.389  0.102  0.500-   4 1.42  26 1.42  22 1.43
  22  0.444  0.002  0.497-  20 1.42  21 1.43  30 1.43
  23  0.612  0.099  0.496-  24 1.41  20 1.42  34 1.42
  24  0.557  0.198  0.500-  23 1.41  27 1.41  26 1.43
  25  0.395  0.301  0.512-  54 1.38  26 1.42   8 1.45
  26  0.446  0.200  0.503-  21 1.42  25 1.42  24 1.43
  27  0.615  0.295  0.500-  28 1.39  24 1.41  38 1.41
  28  0.560  0.391  0.509-  54 1.36  55 1.38  27 1.39
  29  0.555  0.804  0.496-  57 1.38  32 1.41  31 1.43
  30  0.389  0.903  0.497-  31 1.41  22 1.43  19 1.43
  31  0.443  0.803  0.497-  56 1.40  30 1.41  29 1.43
  32  0.610  0.903  0.496-  29 1.41  20 1.41  50 1.43
  33  0.890  0.001  0.496-  52 1.42  35 1.43  36 1.44
  34  0.724  0.100  0.495-  35 1.42  23 1.42  39 1.43
  35  0.779  0.000  0.495-  34 1.42  50 1.43  33 1.43
  36  0.946  0.101  0.496-   2 1.43  37 1.43  33 1.44
  37  0.891  0.201  0.496-  39 1.42  36 1.43  40 1.43
  38  0.725  0.298  0.497-  27 1.41  39 1.41  43 1.43
  39  0.780  0.199  0.495-  38 1.41  37 1.42  34 1.43
  40  0.945  0.302  0.497-  37 1.43   6 1.43  41 1.43
  41  0.888  0.402  0.498-  43 1.43  44 1.43  40 1.43
  42  0.717  0.497  0.501-  55 1.39  43 1.44  47 1.45
  43  0.777  0.400  0.498-  38 1.43  41 1.43  42 1.44
  44  0.942  0.502  0.498-  41 1.43  10 1.44  45 1.44
  45  0.883  0.601  0.497-  48 1.44  44 1.44  47 1.46
  46  0.715  0.702  0.497-  57 1.39  51 1.44  47 1.45
  47  0.770  0.600  0.498-  42 1.45  46 1.45  45 1.46
  48  0.941  0.700  0.497-  49 1.42  45 1.44  13 1.44
  49  0.887  0.801  0.496-  48 1.42  51 1.43  52 1.44
  50  0.722  0.902  0.496-  51 1.42  35 1.43  32 1.43
  51  0.775  0.801  0.496-  50 1.42  49 1.43  46 1.44
  52  0.944  0.900  0.496-  33 1.42  17 1.43  49 1.44
  53  0.272  0.505  0.516-  12 1.38   9 1.38  58 1.88
  54  0.456  0.391  0.522-  28 1.36  25 1.38  58 1.88
  55  0.609  0.490  0.507-  28 1.38  42 1.39  59 1.90
  56  0.392  0.704  0.500-  31 1.40  15 1.41  59 1.94
  57  0.607  0.707  0.497-  29 1.38  46 1.39  59 1.90
  58  0.397  0.512  0.565-  54 1.88  53 1.88  59 2.11
  59  0.504  0.598  0.504-  57 1.90  55 1.90  56 1.94  58 2.11

  LATTYP: Found a simple orthorhombic cell.
 ALAT       =    12.4000000000
 B/A-ratio  =     1.0330645161
 C/A-ratio  =     1.6129032258

  Lattice vectors:

 A1 = (   0.0000000000, -12.4000000000,   0.0000000000)
 A2 = ( -12.8100000000,   0.0000000000,   0.0000000000)
 A3 = (   0.0000000000,   0.0000000000, -20.0000000000)

Analysis of symmetry for initial positions (statically):
 Subroutine PRICEL returns:
 Original cell was already a primitive cell.

 Routine SETGRP: Setting up the symmetry group for a
 simple orthorhombic supercell.

 Subroutine GETGRP returns: Found  1 space group operations
 (whereof  1 operations were pure point group operations)
 out of a pool of  8 trial point group operations.

The static configuration has the point symmetry C_1 .

Analysis of symmetry for dynamics (positions and initial velocities):
 Subroutine PRICEL returns:
 Original cell was already a primitive cell.

[...]

The dynamic configuration has the point symmetry C_1 .

Analysis of structural, dynamic, and magnetic symmetry:
 Subroutine PRICEL returns:
 Original cell was already a primitive cell.

 Routine SETGRP: Setting up the symmetry group for a
 simple orthorhombic supercell.

 Subroutine GETGRP returns: Found  1 space group operations
 (whereof  1 operations were pure point group operations)
 out of a pool of  8 trial point group operations.

The magnetic configuration has the point symmetry C_1 .

 Subroutine INISYM returns: Found  1 space group operations
 (whereof  1 operations are pure point group operations),
 and found     1 'primitive' translations

 KPOINTS: KPOINTS created by Atomic Simulation Env

Automatic generation of k-mesh.
Space group operators:
 irot       det(A)        alpha          n_x          n_y          n_z        tau_x        tau_y        tau_z
    1     1.000000     0.000000     1.000000     0.000000     0.000000     0.000000     0.000000     0.000000

 Subroutine IBZKPT returns following result:

 Found      2 irreducible k-points:

 Following reciprocal coordinates:
            Coordinates               Weight
  0.250000  0.250000  0.000000      2.000000
 -0.250000  0.250000  0.000000      2.000000

 Following cartesian coordinates:
            Coordinates               Weight
  0.019516  0.020161  0.000000      2.000000
 -0.019516  0.020161  0.000000      2.000000

 Subroutine IBZKPT_HF returns following result:

 Found      4 k-points in 1st BZ
 the following      4 k-points will be used (e.g. in the exchange kernel)
 Following reciprocal coordinates:   # in IRBZ
  0.250000  0.250000  0.000000    0.25000000   1 t-inv F
 -0.250000  0.250000  0.000000    0.25000000   2 t-inv F
 -0.250000 -0.250000  0.000000    0.25000000   1 t-inv T
  0.250000 -0.250000  0.000000    0.25000000   2 t-inv T

 SYSTEM =  unknown system
 POSCAR =   C  N Co Fe

 Startparameter for this run:
   NWRITE =      2    write-flag & timer
   PREC   = accura    normal or accurate (medium, high low for compatibility)
   ISTART =      1    job   : 0-new  1-cont  2-samecut
   ICHARG =      0    charge: 1-file 2-atom 10-const
   ISPIN  =      2    spin polarized calculation?
   LNONCOLLINEAR =      F non collinear calculations
   LSORBIT =      F    spin-orbit coupling
   INIWAV =      1    electr: 0-lowe 1-rand  2-diag
   LASPH  =      T    aspherical Exc in radial PAW
   METAGGA=      F    non-selfconsistent MetaGGA calc.

 Electronic Relaxation 1
   ENCUT  =  500.0 eV  36.75 Ry    6.06 a.u.  23.36 22.61 36.46*2*pi/ulx,y,z
   ENINI  =  500.0     initial cutoff
   ENAUG  =  644.9 eV  augmentation charge cutoff
   NELM   =    250;   NELMIN=  2; NELMDL=  0     # of ELM steps
   EDIFF  = 0.1E-03   stopping-criterion for ELM
   LREAL  =      F    real-space projection
   NLSPLINE    = F    spline interpolate recip. space projectors
   LCOMPAT=      F    compatible to vasp.4.4
   GGA_COMPAT  = T    GGA compatible to vasp.4.4-vasp.4.6
   LMAXPAW     = -100 max onsite density
   LMAXMIX     =    2 max onsite mixed and CHGCAR
   VOSKOWN=      0    Vosko Wilk Nusair interpolation
   ROPT   =    0.00000   0.00000   0.00000   0.00000
 Ionic relaxation
   EDIFFG = -.3E-01   stopping-criterion for IOM
   NSW    =      0    number of steps for IOM
   NBLOCK =      1;   KBLOCK =      1    inner block; outer block
   IBRION =     -1    ionic relax: 0-MD 1-quasi-New 2-CG
   NFREE  =      1    steps in history (QN), initial steepest desc. (CG)
   ISIF   =      2    stress and relaxation
   IWAVPR =     10    prediction:  0-non 1-charg 2-wave 3-comb
   ISYM   =      3    0-nonsym 1-usesym 2-fastsym
   LCORR  =      T    Harris-Foulkes like correction to forces

   POTIM  = 0.5000    time-step for ionic-motion
   TEIN   =    0.0    initial temperature
   TEBEG  =    0.0;   TEEND  =   0.0 temperature during run
   SMASS  =  -3.00    Nose mass-parameter (am)
   estimated Nose-frequenzy (Omega)   =  0.10E-29 period in steps =****** mass=  -0.375E-26a.u.
   SCALEE = 1.0000    scale energy and forces
   NPACO  =    256;   APACO  = 16.0  distance and # of slots for P.C.
   PSTRESS=    0.0 pullay stress

  Mass of Ions in am
   POMASS =  12.01 14.00 58.93 55.85
  Ionic Valenz
   ZVAL   =   4.00  5.00  9.00  8.00
  Atomic Wigner-Seitz radii
  virtual crystal weights
   VCA    =   1.00  1.00  1.00  1.00
   NELECT =     250.0000    total number of electrons
   NUPDOWN=      -1.0000    fix difference up-down

 DOS related values:
   EMIN   =  10.00;   EMAX   =-10.00  energy-range for DOS
   EFERMI =   0.00
   ISMEAR =     0;   SIGMA  =   0.10  broadening in eV -4-tet -1-fermi 0-gaus

 Electronic relaxation 2 (details)
   IALGO  =     53    algorithm
   LDIAG  =      T    sub-space diagonalisation (order eigenvalues)
   LSUBROT=      F    optimize rotation matrix (better conditioning)
   TURBO    =      0    0=normal 1=particle mesh
   IRESTART =      0    0=no restart 2=restart with 2 vectors
   NREBOOT  =      0    no. of reboots
   NMIN     =      0    reboot dimension
   EREF     =   0.00    reference energy to select bands
   IMIX   =      4    mixing-type and parameters
     AMIX     =   0.40;   BMIX     =  1.00
     AMIX_MAG =   1.60;   BMIX_MAG =  1.00
     AMIN     =   0.10
     WC   =   100.;   INIMIX=   1;  MIXPRE=   1;  MAXMIX= -45

 Intra band minimization:
   WEIMIN = 0.0000     energy-eigenvalue tresh-hold
   EBREAK =  0.16E-06  absolut break condition
[...]
   41        0.866   1.758   0.000   2.624
   42        0.855   1.704   0.000   2.558
   43        0.863   1.780   0.000   2.643
   44        0.861   1.766   0.000   2.627
   45        0.858   1.735   0.000   2.592
   46        0.853   1.703   0.000   2.556
   47        0.849   1.751   0.000   2.600
   48        0.861   1.765   0.000   2.626
   49        0.865   1.755   0.000   2.620
   50        0.868   1.768   0.000   2.637
   51        0.862   1.769   0.000   2.631
   52        0.863   1.763   0.000   2.626
   53        1.230   2.685   0.000   3.914
   54        1.230   2.700   0.000   3.930
   55        1.229   2.691   0.000   3.920
   56        1.217   2.653   0.000   3.870
   57        1.226   2.679   0.000   3.906
   58        0.429   0.393   7.488   8.310
   59        0.468   0.579   6.312   7.360
tot         51.916 105.996  13.800 171.712

 magnetization (x)

[...]

  FORCE on cell =-STRESS in cart. coord.  units (eV):
  Direction    XX          YY          ZZ          XY          YZ          ZX
  Alpha Z   103.01850   103.01850   103.01850
  Ewald   49553.34375 49486.23668-58072.54022    31.99127     5.68589   -94.95848
  Hartree 49020.38308 49010.24120-48204.17653    -1.91323   -27.69815   -71.82562
  E(xc)    -733.55534  -733.81713  -747.85525     0.13970     0.28476     0.23476
  Local  ************************102980.59370   -15.78505    27.88050   168.15693
  n-local  -144.18588  -144.66552  -139.73859     2.45921    -1.44201    -0.82682
  augment   168.20160   170.84098   171.39920    -3.29689    -0.79688    -0.67177
  Kinetic  3696.34180  3715.17107  4232.14876   -25.24825    -3.62571    -0.30481
  Fock     -348.16103  -349.57838  -322.24225     0.49875    -1.10261    -0.40791
  Total     -44.02325   -36.80606     0.60731   -11.15449    -0.81421    -0.60373
  in kB     -22.20199   -18.56219     0.30628    -5.62548    -0.41063    -0.30448

 VOLUME and BASIS-vectors are now :
  energy-cutoff  :      500.00
  volume of cell :     3176.88
      direct lattice vectors                 reciprocal lattice vectors
    12.810000000  0.000000000  0.000000000     0.078064012  0.000000000  0.000000000
     0.000000000 12.400000000  0.000000000     0.000000000  0.080645161  0.000000000
     0.000000000  0.000000000 20.000000000     0.000000000  0.000000000  0.050000000

  length of vectors
    12.810000000 12.400000000 20.000000000     0.078064012  0.080645161  0.050000000

 FORCES acting on ions:
    Electron-Ion                     Ewald-Force                    Non-Local-Force
   0.649E+01 -.615E+01 0.694E+01   -.651E+01 0.599E+01 -.699E+01   0.143E+00 -.721E-01 0.347E-01
   -.608E+00 -.122E+01 0.756E+01   0.794E+00 0.112E+01 -.758E+01   -.156E+00 0.543E-01 0.258E-01
   0.690E+01 0.336E+00 0.569E+01   -.692E+01 -.433E+00 -.564E+01   -.791E-01 0.769E-01 -.550E-01
   0.147E+02 0.398E+01 0.186E+01   -.149E+02 -.407E+01 -.177E+01   0.281E+00 0.175E+00 -.884E-01
   0.918E+01 0.682E+01 -.428E+01   -.919E+01 -.693E+01 0.425E+01   0.593E-01 0.693E-01 0.363E-01
   0.565E+01 0.570E+01 0.139E+02   -.553E+01 -.601E+01 -.140E+02   -.170E-01 0.314E+00 0.480E-01
   0.538E+01 0.828E+01 0.509E+01   -.541E+01 -.836E+01 -.506E+01   0.163E-02 0.104E+00 -.218E-01
   0.228E+02 0.231E+02 -.173E+02   -.230E+02 -.233E+02 0.172E+02   0.291E+00 0.833E-01 0.461E-01
   0.348E+02 0.512E+02 0.162E+00   -.365E+02 -.540E+02 -.828E+00   0.177E+01 0.318E+01 0.748E+00
   0.181E+02 0.219E+01 0.128E+02   -.183E+02 -.202E+01 -.126E+02   0.245E+00 -.142E+00 -.136E+00
   0.205E+02 0.125E+02 0.165E+02   -.210E+02 -.129E+02 -.166E+02   0.381E+00 0.218E+00 0.131E+00
   0.401E+02 -.418E+02 0.232E+02   -.419E+02 0.451E+02 -.241E+02   0.169E+01 -.300E+01 0.850E+00
   0.132E+02 -.847E+01 0.206E+02   -.133E+02 0.870E+01 -.206E+02   0.223E+00 -.224E+00 0.551E-01
   0.213E+02 -.802E+01 0.215E+02   -.215E+02 0.861E+01 -.216E+02   0.116E+00 -.477E+00 0.149E+00
   0.416E+02 -.156E+02 0.282E+02   -.450E+02 0.155E+02 -.284E+02   0.291E+01 0.803E-01 0.202E+00
   0.199E+02 -.134E+02 0.200E+02   -.201E+02 0.132E+02 -.201E+02   0.241E+00 -.964E-01 0.734E-01
   0.352E+01 -.344E+01 0.103E+02   -.337E+01 0.350E+01 -.104E+02   -.118E+00 0.639E-02 0.391E-01
   0.808E+01 -.720E+01 0.145E+02   -.832E+01 0.701E+01 -.144E+02   0.164E+00 0.983E-01 -.945E-01
   0.155E+02 -.989E+01 0.148E+02   -.159E+02 0.104E+02 -.148E+02   0.265E+00 -.206E+00 0.502E-01
   -.169E+01 -.516E+01 0.191E+02   0.139E+01 0.518E+01 -.190E+02   0.265E+00 -.945E-01 -.510E-01
   0.708E+01 0.626E+01 0.128E+02   -.760E+01 -.667E+01 -.129E+02   0.417E+00 0.399E+00 0.712E-01
   0.506E+01 -.531E+01 0.181E+02   -.487E+01 0.529E+01 -.181E+02   -.992E-01 0.248E-01 0.411E-01
   -.928E+01 0.769E+01 0.218E+02   0.945E+01 -.812E+01 -.219E+02   -.122E+00 0.485E+00 0.751E-01
   -.296E+01 0.209E+02 0.167E+02   0.287E+01 -.216E+02 -.165E+02   0.126E+00 0.648E+00 -.225E+00
   0.397E+02 0.508E+02 -.104E+02   -.421E+02 -.541E+02 0.957E+01   0.243E+01 0.318E+01 0.810E+00
   0.818E+01 0.247E+02 0.129E+02   -.851E+01 -.253E+02 -.130E+02   0.275E+00 0.553E+00 0.166E+00
   -.243E+02 0.304E+02 0.288E+02   0.250E+02 -.315E+02 -.292E+02   -.645E+00 0.107E+01 0.385E+00
   -.421E+02 0.448E+02 -.324E+01   0.443E+02 -.484E+02 0.239E+01   -.226E+01 0.353E+01 0.850E+00
   0.483E+00 -.477E+02 0.252E+02   -.247E+01 0.509E+02 -.253E+02   0.174E+01 -.305E+01 0.101E+00
   0.945E+01 -.211E+02 0.181E+02   -.943E+01 0.213E+02 -.180E+02   0.170E+00 -.329E+00 -.633E-01
   -.663E+00 -.480E+02 0.283E+02   0.198E+01 0.509E+02 -.285E+02   -.106E+01 -.264E+01 0.285E+00
   -.123E+02 -.174E+02 0.196E+02   0.121E+02 0.179E+02 -.196E+02   0.879E-01 -.409E+00 0.548E-01
   -.608E+01 -.218E+01 0.137E+02   0.626E+01 0.212E+01 -.137E+02   -.129E+00 0.285E-01 0.101E-01
   -.962E+01 0.271E+01 0.220E+02   0.963E+01 -.282E+01 -.220E+02   -.976E-01 0.145E+00 -.510E-02
   -.979E+01 0.652E+00 0.175E+02   0.994E+01 -.676E+00 -.176E+02   -.212E+00 -.558E-01 0.294E-01
   -.158E+01 0.413E+01 0.136E+02   0.176E+01 -.428E+01 -.136E+02   -.179E+00 0.111E+00 0.262E-01
   -.826E+01 0.254E+01 0.187E+02   0.852E+01 -.260E+01 -.187E+02   -.235E+00 0.936E-01 0.183E-02
   -.227E+02 0.932E+01 0.286E+02   0.234E+02 -.952E+01 -.288E+02   -.702E+00 0.136E+00 0.205E+00
   -.117E+02 0.932E+01 0.253E+02   0.119E+02 -.960E+01 -.253E+02   -.245E+00 0.309E+00 0.505E-01
   -.217E+01 0.228E+01 0.179E+02   0.224E+01 -.235E+01 -.179E+02   -.127E+00 0.395E-01 0.534E-01
   -.882E+01 0.194E+01 0.156E+02   0.930E+01 -.174E+01 -.156E+02   -.363E+00 -.142E+00 0.267E-01
   -.552E+02 -.118E+02 0.895E+01   0.593E+02 0.123E+02 -.913E+01   -.399E+01 -.551E+00 0.199E+00
   -.242E+02 0.696E+00 0.158E+02   0.247E+02 -.736E+00 -.158E+02   -.569E+00 0.127E+00 -.274E-01
   -.283E+00 -.248E+01 0.123E+02   0.144E+00 0.276E+01 -.123E+02   0.914E-01 -.302E+00 -.198E-01
   -.351E+00 -.249E+01 0.138E+02   0.493E+00 0.272E+01 -.138E+02   -.202E-01 -.135E+00 0.333E-01
   -.511E+02 0.147E+01 0.154E+02   0.547E+02 -.166E+01 -.154E+02   -.368E+01 0.282E+00 -.192E-01
   -.229E+02 -.369E+01 0.130E+02   0.231E+02 0.390E+01 -.130E+02   -.258E+00 -.208E+00 0.597E-01
   -.181E+01 -.144E+00 0.161E+02   0.185E+01 0.164E-01 -.161E+02   -.157E+00 0.884E-01 0.203E-02
   -.577E+01 -.568E+01 0.127E+02   0.608E+01 0.546E+01 -.127E+02   -.300E+00 0.141E+00 0.200E-01
   -.147E+02 -.898E+01 0.158E+02   0.149E+02 0.927E+01 -.158E+02   -.244E+00 -.146E+00 0.195E-01
   -.195E+02 -.170E+01 0.125E+02   0.200E+02 0.179E+01 -.125E+02   -.431E+00 -.210E+00 -.282E-01
   -.201E+01 0.187E+01 0.113E+02   0.213E+01 -.187E+01 -.113E+02   -.118E+00 0.414E-01 -.531E-02
   0.318E+02 0.684E+01 -.167E+02   -.121E+02 -.642E+01 0.185E+02   -.188E+02 -.542E+00 -.222E+01
   0.173E+02 0.460E+02 -.796E+02   -.264E+02 -.302E+02 0.851E+02   0.897E+01 -.149E+02 -.551E+01
   -.542E+02 -.327E+02 -.941E+01   0.450E+02 0.492E+02 0.108E+02   0.886E+01 -.158E+02 -.116E+01
   0.249E+02 0.919E+00 0.516E+02   -.158E+02 -.173E+02 -.526E+02   -.848E+01 0.152E+02 0.109E+01
   -.345E+02 0.127E+02 0.424E+02   0.255E+02 -.283E+02 -.435E+02   0.863E+01 0.146E+02 0.104E+01
   0.416E+02 -.464E+02 -.825E+03   -.444E+02 0.419E+02 0.819E+03   0.172E+01 0.408E+01 0.842E+01
   -.275E+02 -.273E+02 0.103E+03   0.315E+02 0.317E+02 -.102E+03   -.338E+01 -.360E+01 -.165E+01
   0.477E+01 -.228E+01 -.455E+01   0.334E-12 0.426E-13 -.341E-12   -.478E+01 0.244E+01 0.524E+01

 POSITION                                       TOTAL-FORCE (eV/Angst)
      2.85078      0.02822      9.98298         0.119491     -0.244278     -0.006110
      0.73596      1.26800      9.96873         0.017272     -0.043777     -0.001453
      1.42641      0.01922      9.96980        -0.103195     -0.012897     -0.008502
      3.56429      1.27987     10.02731         0.073225      0.094245     -0.005398
      2.88096      2.54355     10.08040         0.039316     -0.050066     -0.000404
      0.72719      3.75308      9.98787         0.107413      0.015259      0.011666
      1.44708      2.52022     10.01238        -0.032401      0.032984      0.004007
      3.60616      3.79494     10.19558         0.068184     -0.172886     -0.033389
      2.84900      5.04464     10.18086         0.173331      0.575735      0.122060
      0.69327      6.24070      9.99884         0.082328      0.020188      0.009244
      1.42438      5.00381     10.03415        -0.112384     -0.080363      0.039292
      2.84143      7.46983     10.08970         0.042638      0.138111      0.014718
      0.68559      8.70141      9.94401         0.111734     -0.011287      0.025166
      1.40992      7.47900      9.99357        -0.073980      0.088908      0.078361
      3.61217      8.69902     10.00647        -0.328223     -0.063981     -0.073107
      2.86212      9.92673      9.95949         0.041941     -0.266048      0.034539
      0.71585     11.17408      9.94584         0.028466      0.062108     -0.003385
      1.42291      9.92842      9.94941        -0.065756     -0.081025     -0.000870
      3.55180     11.18953      9.95804        -0.109036      0.266507      0.010985
      7.11348      0.01849      9.92363        -0.020974     -0.078859      0.009400
      4.98234      1.25906     10.00096        -0.078986      0.004338      0.011006
      5.69268      0.02467      9.94673         0.082011     -0.000935     -0.003241
      7.84567      1.23213      9.92678         0.035964      0.084371      0.004435
      7.13768      2.44997      9.99561         0.050673     -0.006602      0.014842
      5.05371      3.72978     10.23055         0.162339      0.063623      0.022573
      5.71410      2.47969     10.05730        -0.032207      0.050055      0.029017
      7.87516      3.65381     10.00392         0.053891      0.012518      0.045817
      7.17963      4.84593     10.18766        -0.183986      0.111696      0.046606
      7.10637      9.97559      9.92604        -0.149947      0.042717     -0.035080
      4.97721     11.19183      9.94555         0.195243     -0.132548      0.004992
      5.67448      9.96184      9.94317         0.206583      0.146824      0.090407
      7.81988     11.19253      9.91310        -0.057547      0.060961      0.020841
     11.40225      0.01109      9.91631         0.035518     -0.031055     -0.000511
      9.27002      1.24052      9.90206        -0.087045      0.036613      0.012766
      9.97456      0.00516      9.90268        -0.077919     -0.079472      0.000635
     12.12139      1.25397      9.92940        -0.014926     -0.024275     -0.000010
     11.41406      2.49152      9.91772         0.014378      0.043949      0.010213
      9.28658      3.69788      9.93602        -0.083187     -0.057325      0.052764
      9.99261      2.47276      9.90391        -0.041668      0.042964      0.015738
     12.10691      3.74262      9.94166        -0.053813     -0.026584      0.011084
     11.37930      4.97920      9.95079         0.092506      0.049885      0.009708
      9.17886      6.16700     10.02338        -0.128314     -0.074522      0.036908
      9.95317      4.95722      9.96653        -0.060427      0.090912     -0.004713
     12.06830      6.23095      9.96441        -0.045618     -0.045268     -0.001963
     11.31659      7.45504      9.94977         0.131482      0.080845      0.005100
      9.15577      8.70368      9.94544        -0.299454      0.110856      0.030130
      9.85927      7.44090      9.96818        -0.006343     -0.006544      0.026339
     12.05645      8.68569      9.93342        -0.131673     -0.028345      0.000732
     11.35700      9.92659      9.92659        -0.009716     -0.081871     -0.000564
      9.24602     11.17917      9.91101        -0.055551      0.142148     -0.006400
      9.92434      9.92634      9.92701         0.020068     -0.125139     -0.025619
     12.09273     11.16482      9.92798        -0.007323      0.049924     -0.003386
      3.47969      6.26619     10.31499        -0.780062     -0.159738     -0.583782
      5.84198      4.84799     10.44353         0.627956     -0.410820     -0.475919
      7.79870      6.07531     10.13963         0.416879     -0.760929      0.138908
      5.02667      8.72720      9.99096        -0.100388      0.140655      0.186650
      7.77160      8.76446      9.93604         0.347560      0.290679      0.055151
      5.08447      6.34414     11.29249        -0.587870     -0.474420      1.178882
      6.45279      7.41048     10.08826         0.541529      0.681282     -1.147877
    total drift:                                0.005946     -0.000732     -0.009515

  FREE ENERGIE OF THE ION-ELECTRON SYSTEM (eV)
  free  energy   TOTEN  =      -618.74537346 eV

  energy  without entropy=     -618.74458617  energy(sigma->0) =     -618.74497982

 stress matrix after NEB project (eV)
    -44.02325    -11.15586     -0.60373
    -11.15449    -36.80606     -0.81722
     -0.60135     -0.81421      0.60731
  FORCES: max atom, RMS     1.440493    0.375566
  FORCE total and by dimension    2.884780    1.178882
  Stress total and by dimension   59.531792   44.023247
 writing wavefunctions
 vacuum level on the upper side and lower side of the slab         1.383         1.617

 total charge

[...]

 magnetization (x)

# of ion       s       p       d       tot
    1        0.000   0.003   0.000   0.003
    2       -0.000  -0.000   0.000  -0.000
    3        0.000   0.002   0.000   0.002
    4        0.000   0.002   0.000   0.002
    5       -0.000  -0.003   0.000  -0.003
    6        0.000   0.001   0.000   0.001
    7        0.000   0.002   0.000   0.002
    8        0.001   0.006   0.000   0.006
    9        0.000  -0.000   0.000   0.000
   10       -0.000  -0.006   0.000  -0.007
   11        0.001   0.004   0.000   0.005
   12        0.000  -0.004   0.000  -0.004
   13        0.000   0.004   0.000   0.004
   14        0.001   0.004   0.000   0.004
   15        0.000  -0.003   0.000  -0.002
   16        0.000   0.003   0.000   0.003
   17       -0.000  -0.002   0.000  -0.002
   18        0.000   0.003   0.000   0.003
   19       -0.000  -0.002   0.000  -0.002
   20        0.000   0.003   0.000   0.003
   21       -0.000  -0.001   0.000  -0.001
   22        0.000   0.001   0.000   0.001
   23        0.000   0.003   0.000   0.003
   24       -0.000  -0.003   0.000  -0.003
   25       -0.001  -0.003   0.000  -0.004
   26        0.001   0.004   0.000   0.005
   27        0.000   0.004   0.000   0.004
   28       -0.000  -0.003   0.000  -0.003
   29        0.000   0.004   0.000   0.005
   30       -0.000  -0.001   0.000  -0.002
   31       -0.000  -0.002   0.000  -0.002
   32       -0.000   0.000   0.000  -0.000
   33       -0.000   0.000   0.000  -0.000
   34       -0.000  -0.002   0.000  -0.002
   35        0.000   0.002   0.000   0.003
   36        0.000   0.003   0.000   0.004
   37       -0.000  -0.003   0.000  -0.004
   38        0.000   0.000   0.000   0.000
   39        0.000   0.002   0.000   0.002
   40        0.000   0.003   0.000   0.003
   41       -0.000  -0.002   0.000  -0.002
   42       -0.000  -0.001   0.000  -0.001
   43        0.000   0.004   0.000   0.004
   44        0.000   0.004   0.000   0.004
   45       -0.000  -0.003   0.000  -0.003
   46       -0.000   0.000   0.000   0.000
   47        0.000   0.003   0.000   0.003
   48        0.000   0.003   0.000   0.004
   49       -0.000  -0.000   0.000  -0.000
   50       -0.000  -0.004   0.000  -0.005
   51       -0.000   0.003   0.000   0.003
   52        0.000   0.002   0.000   0.002
   53        0.006   0.030   0.000   0.037
   54        0.002   0.025   0.000   0.027
   55       -0.003  -0.015   0.000  -0.018
   56       -0.003  -0.004   0.000  -0.007
   57       -0.006  -0.031   0.000  -0.037
   58       -0.009   0.024   1.775   1.790
   59        0.017   0.002   1.923   1.941
tot          0.006   0.067   3.698   3.771