 vasp.5.4.4.18Apr17-6-g9f103f2a35 (build Feb 25 2019 10:51:38) complex

 executed on             LinuxIFC date 2021.06.17  07:39:49

 INCAR:
 POTCAR:    PAW_PBE C 08Apr2002
 POTCAR:    PAW_PBE N 08Apr2002
 POTCAR:    PAW_PBE Fe 06Sep2000
 POTCAR:    PAW_PBE Mn 06Sep2000

 POTCAR:    PAW_PBE C 08Apr2002
   VRHFIN =C: s2p2

   TITEL  = PAW_PBE C 08Apr2002
   POMASS =   12.011; ZVAL   =    4.000    mass and valenz
   ENMAX  =  400.000; ENMIN  =  300.000 eV

 POTCAR:    PAW_PBE N 08Apr2002
   VRHFIN =N: s2p3

   TITEL  = PAW_PBE N 08Apr2002
   POMASS =   14.001; ZVAL   =    5.000    mass and valenz
   ENMAX  =  400.000; ENMIN  =  300.000 eV

 POTCAR:    PAW_PBE Fe 06Sep2000
   VRHFIN =Fe:  d7 s1

   TITEL  = PAW_PBE Fe 06Sep2000
   POMASS =   55.847; ZVAL   =    8.000    mass and valenz
   ENMAX  =  267.882; ENMIN  =  200.911 eV

 POTCAR:    PAW_PBE Mn 06Sep2000
   VRHFIN =Mn: d6 s1

   TITEL  = PAW_PBE Mn 06Sep2000
   POMASS =   54.938; ZVAL   =    7.000    mass and valenz
   ENMAX  =  269.864; ENMIN  =  202.398 eV

  PAW_PBE C 08Apr2002                   :
  PAW_PBE N 08Apr2002                   :
  PAW_PBE Fe 06Sep2000                  :
  PAW_PBE Mn 06Sep2000                  :

 POSCAR:  C  N Fe Mn
  positions in cartesian coordinates
 exchange correlation table for  LEXCH =        8
   RHO(1)=    0.500       N(1)  =     2000
   RHO(2)=  100.500       N(2)  =     4000

 VTST: version 3.2, (02/03/18)

 CHAIN: initializing optimizer

 OPT: Using VASP Conjugate-Gradient optimizer
 CHAIN: Read ICHAIN            0

 POSCAR:  C  N Fe Mn
  positions in cartesian coordinates

 ion  position               nearest neighbor table
   1  0.222  0.998  0.501-   3 1.41   4 1.41  17 1.42
   2  0.055  0.099  0.500-  34 1.42   7 1.43   3 1.43
   3  0.110  0.999  0.501-   1 1.41  15 1.43   2 1.43
   4  0.277  0.096  0.501-   1 1.41  19 1.42   5 1.42
   5  0.222  0.195  0.500-   8 1.41   7 1.42   4 1.42
   6  0.057  0.300  0.500-   7 1.44  38 1.44  10 1.44
   7  0.110  0.198  0.500-   5 1.42   2 1.43   6 1.44
   8  0.280  0.291  0.501-  51 1.37  53 1.38   5 1.41
   9  0.064  0.498  0.500-  10 1.45  12 1.47  42 1.47
  10  0.119  0.396  0.499-  51 1.41   6 1.44   9 1.45
  11  0.059  0.698  0.501-  46 1.43  16 1.44  12 1.45
  12  0.120  0.600  0.500-  52 1.39  11 1.45   9 1.47
  13  0.279  0.703  0.500-  52 1.38  14 1.41  25 1.42
  14  0.223  0.801  0.501-  13 1.41  16 1.42  17 1.42
  15  0.056  0.899  0.501-  50 1.41  16 1.43   3 1.43
  16  0.112  0.800  0.501-  14 1.42  15 1.43  11 1.44
  17  0.278  0.900  0.501-  28 1.41  14 1.42   1 1.42
  18  0.556  0.999  0.499-  20 1.41  30 1.42  21 1.42
  19  0.389  0.096  0.500-  23 1.41   4 1.42  20 1.42
  20  0.445  0.998  0.499-  18 1.41  19 1.42  28 1.42
  21  0.610  0.098  0.499-  22 1.41  32 1.42  18 1.42
  22  0.555  0.196  0.500-  54 1.38  21 1.41  23 1.42
  23  0.442  0.194  0.501-  53 1.39  19 1.41  22 1.42
  24  0.553  0.608  0.498-  55 1.37  56 1.38  26 1.42
  25  0.391  0.704  0.498-  56 1.39  29 1.41  13 1.42
  26  0.611  0.704  0.498-  27 1.41  24 1.42  44 1.42
  27  0.557  0.803  0.498-  29 1.41  26 1.41  30 1.41
  28  0.389  0.900  0.500-  17 1.41  29 1.42  20 1.42
  29  0.445  0.802  0.499-  25 1.41  27 1.41  28 1.42
  30  0.612  0.901  0.498-  48 1.41  27 1.41  18 1.42
  31  0.889  1.000  0.500-  33 1.41  34 1.43  50 1.44
  32  0.722  0.100  0.499-  21 1.42  33 1.43  37 1.44
  33  0.778  1.000  0.499-  31 1.41  32 1.43  48 1.43
  34  0.943  0.100  0.500-   2 1.42  31 1.43  35 1.44
  35  0.887  0.201  0.500-  37 1.43  38 1.44  34 1.44
  36  0.714  0.299  0.501-  54 1.39  37 1.45  41 1.47
  37  0.775  0.201  0.500-  35 1.43  32 1.44  36 1.45
  38  0.943  0.301  0.500-  39 1.44   6 1.44  35 1.44
  39  0.886  0.401  0.501-  38 1.44  42 1.46  41 1.48
  40  0.715  0.504  0.502-  55 1.41  45 1.44  41 1.45
  41  0.770  0.402  0.501-  40 1.45  36 1.47  39 1.48
  42  0.948  0.498  0.500-  43 1.44  39 1.46   9 1.47
  43  0.891  0.598  0.500-  42 1.44  45 1.44  46 1.44
  44  0.723  0.701  0.500-  26 1.42  49 1.43  45 1.44
  45  0.777  0.600  0.500-  44 1.44  40 1.44  43 1.44
  46  0.947  0.698  0.500-  11 1.43  43 1.44  47 1.44
  47  0.891  0.799  0.500-  49 1.42  50 1.44  46 1.44
  48  0.724  0.900  0.499-  30 1.41  33 1.43  49 1.43
  49  0.779  0.800  0.500-  47 1.42  44 1.43  48 1.43
  50  0.945  0.899  0.500-  15 1.41  47 1.44  31 1.44
  51  0.230  0.388  0.497-   8 1.37  10 1.41  57 1.91
  52  0.230  0.606  0.500-  13 1.38  12 1.39  57 1.96
  53  0.389  0.291  0.504-   8 1.38  23 1.39  58 1.97
  54  0.605  0.294  0.502-  22 1.38  36 1.39  58 2.03
  55  0.604  0.512  0.503-  24 1.37  40 1.41  58 1.96
  56  0.444  0.607  0.495-  24 1.38  25 1.39  57 1.97
  57  0.338  0.494  0.491-  51 1.91  52 1.96  56 1.97  58 2.27
  58  0.491  0.407  0.514-  55 1.96  53 1.97  54 2.03  57 2.27

  LATTYP: Found a triclinic cell.
 ALAT       =    34.6523373928
 B/A-ratio  =     0.3656232437
 C/A-ratio  =     1.2092190655
 COS(alpha) =     0.0001535446
 COS(beta)  =     0.6587503162
 COS(gamma) =     0.7323758138

  Lattice vectors:

 A1 = ( -25.3785337977, -12.5259635379, -19.9953681263)
 A2 = ( -12.6697000000,   0.0000000000,   0.0000000000)
 A3 = (  -0.0064338649, -12.5116328143, -39.9907362525)

Analysis of symmetry for initial positions (statically):
 Subroutine PRICEL returns:
 Original cell was already a primitive cell.

 Routine SETGRP: Setting up the symmetry group for a
 triclinic supercell.

 Subroutine GETGRP returns: Found  1 space group operations
 (whereof  1 operations were pure point group operations)
 out of a pool of  2 trial point group operations.

The static configuration has the point symmetry C_1 .

Analysis of symmetry for dynamics (positions and initial velocities):
 Subroutine PRICEL returns:
 Original cell was already a primitive cell.

[...]

The dynamic configuration has the point symmetry C_1 .

Analysis of structural, dynamic, and magnetic symmetry:
 Subroutine PRICEL returns:
 Original cell was already a primitive cell.

 Routine SETGRP: Setting up the symmetry group for a
 triclinic supercell.

 Subroutine GETGRP returns: Found  1 space group operations
 (whereof  1 operations were pure point group operations)
 out of a pool of  2 trial point group operations.

The magnetic configuration has the point symmetry C_1 .

 Subroutine INISYM returns: Found  1 space group operations
 (whereof  1 operations are pure point group operations),
 and found     1 'primitive' translations

 KPOINTS: KPOINTS created by Atomic Simulation Env

Automatic generation of k-mesh.
Space group operators:
 irot       det(A)        alpha          n_x          n_y          n_z        tau_x        tau_y        tau_z
    1     1.000000     0.000000     1.000000     0.000000     0.000000     0.000000     0.000000     0.000000

 Subroutine IBZKPT returns following result:

 Found      2 irreducible k-points:

 Following reciprocal coordinates:
            Coordinates               Weight
  0.250000  0.250000 -0.000000      2.000000
 -0.250000  0.250000  0.000000      2.000000

 Following cartesian coordinates:
            Coordinates               Weight
  0.019732  0.019823  0.000046      2.000000
 -0.019732  0.020049 -0.000018      2.000000

 Subroutine IBZKPT_HF returns following result:

 Found      4 k-points in 1st BZ
 the following      4 k-points will be used (e.g. in the exchange kernel)
 Following reciprocal coordinates:   # in IRBZ
  0.250000  0.250000 -0.000000    0.25000000   1 t-inv F
 -0.250000  0.250000  0.000000    0.25000000   2 t-inv F
 -0.250000 -0.250000  0.000000    0.25000000   1 t-inv T
  0.250000 -0.250000 -0.000000    0.25000000   2 t-inv T

 SYSTEM =  unknown system
 POSCAR =   C  N Fe Mn

 Startparameter for this run:
   NWRITE =      2    write-flag & timer
   PREC   = accura    normal or accurate (medium, high low for compatibility)
   ISTART =      1    job   : 0-new  1-cont  2-samecut
   ICHARG =      0    charge: 1-file 2-atom 10-const
   ISPIN  =      2    spin polarized calculation?
   LNONCOLLINEAR =      F non collinear calculations
   LSORBIT =      F    spin-orbit coupling
   INIWAV =      1    electr: 0-lowe 1-rand  2-diag
   LASPH  =      T    aspherical Exc in radial PAW
   METAGGA=      F    non-selfconsistent MetaGGA calc.

 Electronic Relaxation 1
   ENCUT  =  500.0 eV  36.75 Ry    6.06 a.u.  23.10 22.86 36.46*2*pi/ulx,y,z
   ENINI  =  500.0     initial cutoff
   ENAUG  =  644.9 eV  augmentation charge cutoff
   NELM   =    250;   NELMIN=  2; NELMDL=  0     # of ELM steps
   EDIFF  = 0.1E-03   stopping-criterion for ELM
   LREAL  =      F    real-space projection
   NLSPLINE    = F    spline interpolate recip. space projectors
   LCOMPAT=      F    compatible to vasp.4.4
   GGA_COMPAT  = T    GGA compatible to vasp.4.4-vasp.4.6
   LMAXPAW     = -100 max onsite density
   LMAXMIX     =    2 max onsite mixed and CHGCAR
   VOSKOWN=      0    Vosko Wilk Nusair interpolation
   ROPT   =    0.00000   0.00000   0.00000   0.00000
 Ionic relaxation
   EDIFFG = -.3E-01   stopping-criterion for IOM
   NSW    =      0    number of steps for IOM
   NBLOCK =      1;   KBLOCK =      1    inner block; outer block
   IBRION =     -1    ionic relax: 0-MD 1-quasi-New 2-CG
   NFREE  =      1    steps in history (QN), initial steepest desc. (CG)
   ISIF   =      2    stress and relaxation
   IWAVPR =     10    prediction:  0-non 1-charg 2-wave 3-comb
   ISYM   =      3    0-nonsym 1-usesym 2-fastsym
   LCORR  =      T    Harris-Foulkes like correction to forces

   POTIM  = 0.5000    time-step for ionic-motion
   TEIN   =    0.0    initial temperature
   TEBEG  =    0.0;   TEEND  =   0.0 temperature during run
   SMASS  =  -3.00    Nose mass-parameter (am)
   estimated Nose-frequenzy (Omega)   =  0.10E-29 period in steps =****** mass=  -0.367E-26a.u.
   SCALEE = 1.0000    scale energy and forces
   NPACO  =    256;   APACO  = 16.0  distance and # of slots for P.C.
   PSTRESS=    0.0 pullay stress

  Mass of Ions in am
   POMASS =  12.01 14.00 55.85 54.94
  Ionic Valenz
   ZVAL   =   4.00  5.00  8.00  7.00
  Atomic Wigner-Seitz radii
  virtual crystal weights
   VCA    =   1.00  1.00  1.00  1.00
   NELECT =     245.0000    total number of electrons
   NUPDOWN=      -1.0000    fix difference up-down

 DOS related values:
   EMIN   =  10.00;   EMAX   =-10.00  energy-range for DOS
   EFERMI =   0.00
   ISMEAR =     0;   SIGMA  =   0.10  broadening in eV -4-tet -1-fermi 0-gaus

 Electronic relaxation 2 (details)
   IALGO  =     53    algorithm
   LDIAG  =      T    sub-space diagonalisation (order eigenvalues)
   LSUBROT=      F    optimize rotation matrix (better conditioning)
   TURBO    =      0    0=normal 1=particle mesh
   IRESTART =      0    0=no restart 2=restart with 2 vectors
   NREBOOT  =      0    no. of reboots
   NMIN     =      0    reboot dimension
   EREF     =   0.00    reference energy to select bands
   IMIX   =      4    mixing-type and parameters
     AMIX     =   0.40;   BMIX     =  1.00
     AMIX_MAG =   1.60;   BMIX_MAG =  1.00
     AMIN     =   0.10
     WC   =   100.;   INIMIX=   1;  MIXPRE=   1;  MAXMIX= -45

 Intra band minimization:
   WEIMIN = 0.0000     energy-eigenvalue tresh-hold
[...]
   33        0.867   1.781   0.000   2.647
   34        0.864   1.762   0.000   2.626
   35        0.860   1.749   0.000   2.609
   36        0.849   1.686   0.000   2.534
   37        0.861   1.754   0.000   2.615
   38        0.858   1.743   0.000   2.601
   39        0.851   1.710   0.000   2.561
   40        0.847   1.691   0.000   2.537
   41        0.842   1.720   0.000   2.562
   42        0.851   1.710   0.000   2.560
   43        0.858   1.744   0.000   2.601
   44        0.866   1.763   0.000   2.629
   45        0.859   1.752   0.000   2.611
   46        0.860   1.749   0.000   2.610
   47        0.864   1.761   0.000   2.625
   48        0.867   1.771   0.000   2.638
   49        0.866   1.773   0.000   2.639
   50        0.866   1.768   0.000   2.634
   51        1.228   2.668   0.000   3.896
   52        1.234   2.656   0.000   3.891
   53        1.229   2.689   0.000   3.918
   54        1.236   2.667   0.000   3.903
   55        1.227   2.690   0.000   3.917
   56        1.229   2.670   0.000   3.899
   57        0.450   0.525   6.354   7.329
   58        0.348   0.377   4.974   5.700
tot         51.347 104.981  11.328 167.656

 magnetization (x)

[...]

  FORCE on cell =-STRESS in cart. coord.  units (eV):
  Direction    XX          YY          ZZ          XY          YZ          ZX
  Alpha Z   101.90449   101.90449   101.90449
  Ewald   48374.08162 48196.36090-56866.04891    -6.12605     2.40904    10.00734
  Hartree 47660.88048 47627.47785-47103.78123     5.51335    -1.46875     7.21634
  E(xc)    -717.90307  -718.04326  -731.56769    -0.01579     0.03855    -0.23681
  Local  -98649.20775-98471.04915100837.86483    -6.24627    -1.02092   -17.96309
  n-local  -177.06245  -180.98828  -176.13354    -2.98089     0.20854     0.05457
  augment    46.10371    47.80380    47.92481    -0.13154     0.28481     0.36131
  Kinetic  3652.32152  3687.18405  4195.49539     6.65681    -0.92852     0.79744
  Fock     -329.90570  -330.81797  -306.02013     1.27851    -0.12014    -0.07314
  Total     -38.78715   -40.16757    -0.36199    -2.05186    -0.59737     0.16395
  in kB     -19.56117   -20.25735    -0.18256    -1.03480    -0.30127     0.08268

 VOLUME and BASIS-vectors are now :
  energy-cutoff  :      500.00
  volume of cell :     3176.90
      direct lattice vectors                 reciprocal lattice vectors
    12.669700000  0.000000000  0.000000000     0.078928467 -0.000452121  0.000128754
     0.071833731 12.540294262  0.000000000     0.000000000  0.079742945  0.000057152
    -0.032699933 -0.014330724 19.995368126     0.000000000  0.000000000  0.050011582

  length of vectors
    12.669700000 12.540500000 19.995400000     0.078929867  0.079742966  0.050011582

 FORCES acting on ions:
    Electron-Ion                     Ewald-Force                    Non-Local-Force
   0.701E+01 0.273E+01 -.439E+01   -.714E+01 -.298E+01 0.437E+01   0.109E+00 0.297E+00 0.143E-01
   0.517E+01 0.589E+00 -.131E-01   -.535E+01 -.695E+00 0.187E-01   0.192E+00 0.712E-01 -.180E-02
   0.134E+02 -.221E+00 -.342E+01   -.134E+02 0.275E+00 0.341E+01   0.119E+00 0.540E-02 0.310E-03
   0.939E+01 0.857E+01 -.367E+01   -.955E+01 -.899E+01 0.378E+01   0.614E-01 0.422E+00 -.104E+00
   0.173E+02 0.133E+02 -.187E+01   -.180E+02 -.142E+02 0.186E+01   0.620E+00 0.684E+00 0.184E-01
   0.199E+02 -.398E+01 -.638E+00   -.204E+02 0.427E+01 0.636E+00   0.474E+00 -.248E+00 -.738E-02
   0.203E+02 0.210E+01 0.211E+01   -.208E+02 -.201E+01 -.221E+01   0.605E+00 -.670E-01 0.117E+00
   0.223E+02 0.285E+02 -.428E+01   -.247E+02 -.312E+02 0.431E+01   0.228E+01 0.300E+01 -.389E-01
   0.167E+02 -.227E+01 0.580E+00   -.167E+02 0.213E+01 -.573E+00   -.990E-02 0.433E-01 0.267E-02
   0.407E+02 -.128E+02 0.200E+01   -.443E+02 0.133E+02 -.189E+01   0.366E+01 -.543E+00 -.151E+00
   0.139E+02 0.477E+01 -.408E+01   -.142E+02 -.495E+01 0.405E+01   0.247E+00 0.219E+00 0.256E-01
   0.472E+02 0.138E+02 -.455E+01   -.502E+02 -.141E+02 0.462E+01   0.328E+01 0.544E+00 -.102E+00
   0.275E+01 -.334E+02 -.627E+01   -.168E+01 0.359E+02 0.626E+01   -.122E+01 -.267E+01 -.549E-01
   0.948E+01 -.126E+02 -.892E+01   -.935E+01 0.131E+02 0.894E+01   -.507E-01 -.404E+00 -.358E-01
   0.170E+01 -.450E+00 -.471E+01   -.187E+01 0.524E+00 0.471E+01   0.115E+00 -.954E-01 -.354E-02
   0.178E+02 -.311E+01 -.736E+01   -.181E+02 0.316E+01 0.737E+01   0.307E+00 -.853E-01 -.226E-01
   0.935E+01 -.375E+01 -.577E+01   -.920E+01 0.384E+01 0.576E+01   -.959E-01 -.141E+00 -.363E-03
   -.970E+01 0.166E+01 0.706E+01   0.954E+01 -.175E+01 -.706E+01   0.100E+00 0.117E+00 0.733E-03
   0.312E+00 0.126E+02 0.273E+01   -.680E-01 -.131E+02 -.277E+01   -.100E+00 0.587E+00 0.570E-01
   -.184E+00 0.350E+01 0.367E+01   0.473E+00 -.378E+01 -.369E+01   -.220E+00 0.260E+00 0.151E-01
   -.886E+01 0.928E+01 0.910E+01   0.872E+01 -.975E+01 -.909E+01   0.356E-01 0.402E+00 0.461E-01
   -.212E+01 0.236E+02 0.662E+01   0.118E+01 -.264E+02 -.686E+01   0.113E+01 0.275E+01 0.282E+00
   -.152E+02 0.275E+02 0.599E+00   0.169E+02 -.307E+02 -.763E+00   -.170E+01 0.302E+01 0.183E+00
   -.247E+02 -.216E+02 0.156E+02   0.267E+02 0.248E+02 -.157E+02   -.199E+01 -.341E+01 0.175E+00
   0.889E+01 -.340E+02 0.709E+01   -.106E+02 0.369E+02 -.688E+01   0.173E+01 -.288E+01 -.182E+00
   -.186E+02 -.103E+02 0.991E+01   0.193E+02 0.113E+02 -.993E+01   -.606E+00 -.793E+00 0.156E-01
   -.107E+02 -.960E+01 0.937E+01   0.108E+02 0.101E+02 -.953E+01   -.256E-01 -.485E+00 0.144E+00
   -.128E+01 -.484E+01 -.177E+01   0.978E+00 0.508E+01 0.179E+01   0.239E+00 -.231E+00 -.407E-01
   -.226E+01 -.142E+02 0.292E+01   0.199E+01 0.147E+02 -.288E+01   0.160E+00 -.508E+00 -.587E-01
   -.704E+01 -.310E+01 0.588E+01   0.719E+01 0.339E+01 -.586E+01   -.127E+00 -.322E+00 -.343E-01
   -.755E+01 0.118E+00 0.508E+00   0.754E+01 -.602E-01 -.496E+00   -.307E-01 -.235E-01 -.765E-02
   -.166E+02 0.589E+00 0.540E+01   0.169E+02 -.664E+00 -.541E+01   -.307E+00 0.758E-01 0.164E-01
   -.966E+00 -.640E-01 0.341E+01   0.112E+01 0.205E-01 -.342E+01   -.128E+00 0.847E-01 0.190E-02
   0.797E+01 -.405E+01 0.803E+00   -.810E+01 0.420E+01 -.812E+00   0.127E+00 -.131E+00 0.159E-01
   -.392E+01 -.479E+01 0.477E+00   0.409E+01 0.506E+01 -.473E+00   -.190E+00 -.283E+00 -.121E-02
   -.402E+02 -.172E+02 -.296E+00   0.432E+02 0.174E+02 0.179E+00   -.328E+01 -.518E+00 0.138E+00
   -.109E+02 -.563E+01 0.214E+01   0.113E+02 0.587E+01 -.212E+01   -.269E+00 -.219E+00 -.129E-01
   0.566E+01 -.435E+01 -.161E+01   -.588E+01 0.469E+01 0.165E+01   0.206E+00 -.302E+00 -.282E-01
   0.598E+01 -.441E+01 -.207E+01   -.605E+01 0.452E+01 0.205E+01   0.104E+00 -.116E+00 0.175E-01
   -.350E+02 0.179E+02 -.405E+01   0.390E+02 -.184E+02 0.387E+01   -.390E+01 0.596E+00 0.190E+00
   -.106E+02 0.277E+01 -.438E+01   0.107E+02 -.272E+01 0.431E+01   -.967E-01 0.352E-01 0.557E-01
   -.258E+01 0.484E+01 -.105E+01   0.272E+01 -.496E+01 0.106E+01   -.193E+00 0.127E+00 -.145E-02
   -.323E+01 0.496E+01 -.569E+00   0.354E+01 -.532E+01 0.560E+00   -.274E+00 0.313E+00 0.175E-02
   -.191E+02 -.419E+00 0.755E+00   0.196E+02 0.376E+00 -.639E+00   -.588E+00 0.510E-01 -.123E+00
   -.178E+02 0.452E+01 0.202E+00   0.184E+02 -.484E+01 -.194E+00   -.564E+00 0.228E+00 0.343E-02
   0.571E+01 0.437E+01 -.136E+01   -.587E+01 -.462E+01 0.133E+01   0.180E+00 0.272E+00 0.302E-01
   -.638E+01 0.368E+01 -.158E+01   0.654E+01 -.382E+01 0.159E+01   -.135E+00 0.127E+00 -.207E-01
   -.136E+02 -.215E+00 0.376E+01   0.137E+02 0.169E+00 -.377E+01   -.129E+00 -.161E-01 0.141E-01
   -.478E+01 -.424E+00 0.673E+00   0.497E+01 0.535E+00 -.678E+00   -.218E+00 -.965E-01 0.550E-04
   0.868E+01 -.421E+00 -.151E+01   -.865E+01 0.361E+00 0.150E+01   0.157E-01 0.255E-01 0.159E-01
   0.300E+02 -.389E+02 0.251E+02   -.205E+02 0.566E+02 -.270E+02   -.912E+01 -.174E+02 0.194E+01
   0.206E+02 0.360E+02 -.131E+02   -.942E+01 -.548E+02 0.135E+02   -.112E+02 0.180E+02 -.450E+00
   -.279E+02 -.336E+02 -.268E+02   0.372E+02 0.501E+02 0.280E+02   -.927E+01 -.158E+02 -.115E+01
   -.371E+01 -.546E+02 -.883E+00   -.756E+01 0.740E+02 0.767E+00   0.115E+02 -.187E+02 -.687E-01
   -.170E+02 0.601E+02 -.199E+02   0.819E+01 -.776E+02 0.213E+02   0.858E+01 0.172E+02 -.147E+01
   0.476E+01 0.311E+02 0.439E+02   -.152E+02 -.482E+02 -.462E+02   0.103E+02 0.164E+02 0.214E+01
   -.802E+01 0.208E+02 0.132E+03   0.541E+01 -.199E+02 -.131E+03   0.138E+01 0.679E+00 -.195E+01
   -.238E+02 -.546E+01 -.167E+03   0.249E+02 0.385E+01 0.164E+03   -.445E+00 0.467E+00 0.334E+01
   -.162E+01 -.461E+00 -.309E+01   -.355E-14 -.270E-12 0.568E-13   0.137E+01 0.585E+00 0.290E+01

 POSITION                                       TOTAL-FORCE (eV/Angst)
      2.86202     12.51365     10.01661        -0.014689      0.066375      0.000355
      0.68330      1.23810     10.00250         0.009242     -0.028650      0.003866
      1.44875     12.52340     10.01443         0.061700      0.057856     -0.002882
      3.49966      1.19586     10.01379        -0.095504      0.028668      0.000321
      2.81035      2.43501     10.00724        -0.053398     -0.149638      0.004563
      0.72887      3.75110      9.99581        -0.016738      0.024903     -0.011030
      1.39395      2.47822      9.99590         0.117927      0.027351      0.017708
      3.55119      3.64047     10.00809         0.043553      0.500591     -0.016261
      0.83643      6.23401      9.99151        -0.004752     -0.097441      0.010492
      1.52350      4.95578      9.97701         0.232907     -0.057901     -0.047806
      0.78656      8.74983     10.01247        -0.100683      0.053242      0.003934
      1.54967      7.51504     10.00314         0.475991      0.221202     -0.036464
      3.56895      8.81377      9.99610        -0.208873     -0.242191     -0.065546
      2.87115     10.04127     10.01996         0.069856      0.043840     -0.025317
      0.75647     11.26909     10.01760        -0.058816     -0.025639     -0.006273
      1.45539     10.01994     10.02279         0.039625     -0.035006     -0.013307
      3.56810     11.27955     10.01451         0.054077     -0.051391     -0.013145
      7.09994     12.52105      9.97102        -0.057354      0.040315      0.003528
      4.91477      1.19832     10.00041         0.136566      0.100952      0.022439
      5.69164     12.51108      9.98512         0.061720     -0.006318     -0.003743
      7.72507      1.21960      9.97578        -0.100473     -0.032999      0.050817
      7.02686      2.44804     10.00251         0.247869      0.153550      0.061254
      5.60295      2.42843     10.02079        -0.093904     -0.011652      0.030774
      7.03511      7.62008      9.95654        -0.094440     -0.380914      0.037527
      4.99203      8.82557      9.95074         0.119321     -0.106111      0.013925
      7.78044      8.82671      9.95938         0.053129      0.131134     -0.002724
      7.09494     10.06440      9.95585         0.066884     -0.052725     -0.004494
      4.97571     11.28531      9.99423        -0.056184     -0.002123     -0.015338
      5.68021     10.05634      9.96965        -0.105506     -0.053058     -0.024741
      7.80606     11.28762      9.96680         0.021482     -0.053878     -0.012294
     11.32193     12.53152      9.99597        -0.059137      0.035310      0.003942
      9.14075      1.24097      9.98189        -0.032530      0.003173      0.010663
      9.91049     12.53272      9.98323         0.035170      0.045833      0.001128
     11.93466      1.25184      9.99817         0.016742      0.002552      0.007624
     11.24178      2.51755     10.00006        -0.030381     -0.032093      0.003149
      9.05076      3.74657     10.01839        -0.374753     -0.326239      0.028200
      9.81213      2.51272      9.99820         0.103979      0.006274      0.009622
     11.95650      3.77076     10.00508        -0.009658      0.022161      0.002006
     11.23942      5.02011     10.01159         0.051539     -0.012095     -0.004189
      9.07926      6.30837     10.02808        -0.075993      0.127867      0.023486
      9.76428      5.02783     10.02543        -0.004354      0.095656     -0.012786
     12.03148      6.24195     10.00397        -0.072994      0.020139      0.002689
     11.31313      7.49130     10.00445         0.017672     -0.032532     -0.006788
      9.19855      8.78232      9.98885        -0.084091      0.013257     -0.013530
      9.87152      7.51107     10.00432        -0.005412     -0.071027      0.011811
     12.02611      8.74470     10.00599         0.031902      0.039578     -0.000146
     11.33039     10.00815     10.00278         0.001562     -0.003887     -0.006460
      9.21779     11.27752      9.97762        -0.070249     -0.062092      0.000799
      9.91083     10.02159      9.99004        -0.027562      0.007377     -0.004896
     12.01482     11.26951     10.00562         0.064031     -0.034806      0.001705
      2.92975      4.86320      9.93193        -0.395122     -1.187497      0.228598
      2.93588      7.58680      9.99595        -1.059460      0.716126     -0.036457
      4.92780      3.63678     10.07203        -0.798155     -0.712317     -0.028040
      7.66497      3.67433     10.03486         1.284702     -0.988767     -0.190056
      7.67749      6.40980     10.05696         0.551464      1.262460     -0.192727
      5.65359      7.60850      9.89112         0.726244      0.698825      0.055243
      4.29832      6.18750      9.81230        -0.875955      1.424980     -0.146344
      6.23616      5.09897     10.27247         0.340264     -1.120561      0.291614
    total drift:                                0.002352     -0.001905     -0.003292

  FREE ENERGIE OF THE ION-ELECTRON SYSTEM (eV)
  free  energy   TOTEN  =      -612.20947521 eV

  energy  without entropy=     -612.20498933  energy(sigma->0) =     -612.20723227

 stress matrix after NEB project (eV)
    -38.78715     -2.05238      0.16395
     -2.05186    -40.16757     -0.59779
      0.16228     -0.59737     -0.36199
  FORCES: max atom, RMS     1.679072    0.522273
  FORCE total and by dimension    3.977513    1.424980
  Stress total and by dimension   55.921346   40.167566
 writing wavefunctions

 total charge

[...]

 magnetization (x)

# of ion       s       p       d       tot
    1       -0.000  -0.007   0.000  -0.007
    2       -0.000  -0.003   0.000  -0.003
    3        0.000  -0.002   0.000  -0.002
    4       -0.000  -0.006   0.000  -0.006
    5       -0.001  -0.015   0.000  -0.016
    6       -0.001  -0.015   0.000  -0.016
    7        0.001   0.004   0.000   0.004
    8        0.000   0.003   0.000   0.003
    9       -0.001  -0.013   0.000  -0.014
   10        0.001   0.003   0.000   0.003
   11       -0.001  -0.013   0.000  -0.014
   12       -0.000  -0.002   0.000  -0.002
   13        0.000  -0.005   0.000  -0.005
   14        0.000  -0.002   0.000  -0.002
   15       -0.001  -0.011   0.000  -0.012
   16        0.000  -0.003   0.000  -0.003
   17       -0.000  -0.004   0.000  -0.005
   18       -0.000  -0.004   0.000  -0.004
   19       -0.000   0.001   0.000   0.001
   20       -0.000  -0.008   0.000  -0.009
   21        0.000  -0.000   0.000  -0.000
   22        0.001  -0.004   0.000  -0.004
   23       -0.001  -0.021   0.000  -0.022
   24        0.002   0.009   0.000   0.012
   25       -0.001  -0.013   0.000  -0.014
   26       -0.000  -0.009   0.000  -0.010
   27        0.000  -0.002   0.000  -0.002
   28       -0.000  -0.008   0.000  -0.009
   29        0.001   0.003   0.000   0.003
   30       -0.000  -0.006   0.000  -0.006
   31       -0.000  -0.009   0.000  -0.009
   32       -0.000  -0.006   0.000  -0.006
   33       -0.000  -0.007   0.000  -0.008
   34        0.000  -0.001   0.000  -0.001
   35       -0.000  -0.007   0.000  -0.007
   36        0.001  -0.006   0.000  -0.005
   37        0.000  -0.008   0.000  -0.008
   38       -0.001  -0.012   0.000  -0.012
   39        0.000   0.000   0.000   0.000
   40       -0.000  -0.009   0.000  -0.009
   41       -0.000  -0.004   0.000  -0.004
   42        0.001   0.003   0.000   0.004
   43       -0.001  -0.019   0.000  -0.020
   44        0.000   0.001   0.000   0.001
   45       -0.000  -0.010   0.000  -0.011
   46        0.000  -0.001   0.000  -0.001
   47       -0.000  -0.007   0.000  -0.007
   48       -0.000  -0.003   0.000  -0.003
   49        0.000  -0.000   0.000  -0.000
   50        0.000  -0.004   0.000  -0.004
   51        0.001  -0.000   0.000   0.001
   52       -0.009  -0.067   0.000  -0.076
   53       -0.014  -0.073   0.000  -0.088
   54        0.003  -0.046   0.000  -0.043
   55       -0.004  -0.029   0.000  -0.034
   56        0.007  -0.014   0.000  -0.007
   57       -0.022  -0.035  -0.281  -0.338
   58        0.048   0.021   3.889   3.958
tot          0.005  -0.509   3.608   3.104