 vasp.5.4.4.18Apr17-6-g9f103f2a35 (build Feb 25 2019 10:51:38) complex

 executed on             LinuxIFC date 2021.06.15  08:49:54

 INCAR:
 POTCAR:    PAW_PBE C 08Apr2002
 POTCAR:    PAW_PBE N 08Apr2002
 POTCAR:    PAW_PBE Fe 06Sep2000
 POTCAR:    PAW_PBE V 08Apr2002

 POTCAR:    PAW_PBE C 08Apr2002
   VRHFIN =C: s2p2

   TITEL  = PAW_PBE C 08Apr2002
   POMASS =   12.011; ZVAL   =    4.000    mass and valenz
   ENMAX  =  400.000; ENMIN  =  300.000 eV

 POTCAR:    PAW_PBE N 08Apr2002
   VRHFIN =N: s2p3

[...]

 POTCAR:    PAW_PBE Fe 06Sep2000
   VRHFIN =Fe:  d7 s1

   TITEL  = PAW_PBE Fe 06Sep2000
   POMASS =   55.847; ZVAL   =    8.000    mass and valenz
   ENMAX  =  267.882; ENMIN  =  200.911 eV

 POTCAR:    PAW_PBE V 08Apr2002
   VRHFIN =V: p6 d4 s1

   TITEL  = PAW_PBE V 08Apr2002
   POMASS =   50.941; ZVAL   =    5.000    mass and valenz
   ENMAX  =  192.543; ENMIN  =  144.408 eV

  PAW_PBE C 08Apr2002                   :
  PAW_PBE N 08Apr2002                   :
  PAW_PBE Fe 06Sep2000                  :
  PAW_PBE V 08Apr2002                   :

 POSCAR:  C  N Fe  V
  positions in cartesian coordinates
 exchange correlation table for  LEXCH =        8
   RHO(1)=    0.500       N(1)  =     2000
   RHO(2)=  100.500       N(2)  =     4000

 VTST: version 3.2, (02/03/18)

 CHAIN: initializing optimizer

 OPT: Using VASP Conjugate-Gradient optimizer
 CHAIN: Read ICHAIN            0

 POSCAR:  C  N Fe  V
  positions in cartesian coordinates

 ion  position               nearest neighbor table
   1  0.221  0.001  0.492-   3 1.43  19 1.43   4 1.44
   2  0.057  0.101  0.488-   3 1.43  37 1.43   7 1.44
   3  0.111  0.000  0.490-   1 1.43   2 1.43  17 1.43
   4  0.277  0.102  0.491-  21 1.42   1 1.44   5 1.44
   5  0.224  0.203  0.494-   7 1.44   4 1.44   8 1.45
   6  0.056  0.300  0.492-  41 1.43  11 1.43   7 1.43
   7  0.112  0.201  0.491-   6 1.43   2 1.44   5 1.44
   8  0.281  0.305  0.501-   5 1.45  25 1.46   9 1.47
   9  0.220  0.404  0.506-  54 1.38  11 1.43   8 1.47
  10  0.052  0.501  0.501-  14 1.43  45 1.43  11 1.44
  11  0.109  0.401  0.499-   6 1.43   9 1.43  10 1.44
  12  0.216  0.601  0.516-  54 1.38  14 1.43  15 1.45
  13  0.052  0.700  0.501-  14 1.43  18 1.43  49 1.43
  14  0.107  0.601  0.505-  12 1.43  10 1.43  13 1.43
  15  0.273  0.703  0.519-  16 1.44  12 1.45  29 1.46
  16  0.219  0.800  0.504-  18 1.43  19 1.44  15 1.44
  17  0.054  0.900  0.492-  18 1.43  53 1.43   3 1.43
  18  0.108  0.800  0.498-  17 1.43  13 1.43  16 1.43
  19  0.276  0.901  0.498-   1 1.43  31 1.44  16 1.44
  20  0.554  0.998  0.486-  23 1.43  33 1.43  22 1.43
  21  0.388  0.099  0.488-  26 1.42   4 1.42  22 1.43
  22  0.443  0.999  0.489-  20 1.43  31 1.43  21 1.43
  23  0.611  0.097  0.482-  24 1.42  20 1.43  35 1.43
  24  0.556  0.196  0.485-  27 1.42  23 1.42  26 1.43
  25  0.394  0.299  0.502-  55 1.39  26 1.43   8 1.46
  26  0.445  0.198  0.490-  21 1.42  25 1.43  24 1.43
  27  0.614  0.294  0.489-  28 1.40  39 1.42  24 1.42
  28  0.561  0.388  0.506-  55 1.37  56 1.37  27 1.40
  29  0.382  0.713  0.538-  57 1.36  32 1.45  15 1.46  59 2.58
  30  0.554  0.803  0.508-  58 1.39  33 1.42  32 1.44
  31  0.387  0.900  0.498-  22 1.43  32 1.43  19 1.44
  32  0.442  0.804  0.513-  31 1.43  30 1.44  29 1.45
  33  0.609  0.900  0.492-  30 1.42  20 1.43  51 1.43
  34  0.889  0.999  0.485-  53 1.43  36 1.43  37 1.44
  35  0.722  0.098  0.481-  36 1.43  40 1.43  23 1.43
  36  0.778  0.998  0.484-  51 1.43  35 1.43  34 1.43
  37  0.945  0.099  0.485-  38 1.43   2 1.43  34 1.44
  38  0.890  0.199  0.484-  37 1.43  40 1.43  41 1.43
  39  0.724  0.296  0.487-  27 1.42  40 1.42  44 1.43
  40  0.779  0.197  0.482-  39 1.42  38 1.43  35 1.43
  41  0.945  0.300  0.489-   6 1.43  38 1.43  42 1.43
  42  0.889  0.399  0.492-  44 1.42  45 1.42  41 1.43
  43  0.719  0.493  0.506-  56 1.39  44 1.43  48 1.46
  44  0.778  0.397  0.494-  42 1.42  39 1.43  43 1.43
  45  0.941  0.500  0.498-  42 1.42  10 1.43  46 1.44
  46  0.883  0.599  0.501-  49 1.44  45 1.44  48 1.45
  47  0.717  0.702  0.507-  58 1.39  52 1.43  48 1.47
  48  0.771  0.598  0.506-  46 1.45  43 1.46  47 1.47
  49  0.940  0.699  0.498-  50 1.43  13 1.43  46 1.44
  50  0.886  0.799  0.494-  49 1.43  52 1.43  53 1.43
  51  0.721  0.899  0.490-  36 1.43  52 1.43  33 1.43
  52  0.775  0.800  0.496-  50 1.43  47 1.43  51 1.43
  53  0.943  0.899  0.489-  34 1.43  17 1.43  50 1.43
  54  0.266  0.503  0.519-   9 1.38  12 1.38  59 1.89
  55  0.455  0.388  0.516-  28 1.37  25 1.39  59 1.88
  56  0.614  0.483  0.519-  28 1.37  43 1.39  60 1.99
  57  0.429  0.647  0.583-  29 1.36  59 1.81  60 1.89
  58  0.611  0.709  0.520-  30 1.39  47 1.39  60 1.94
  59  0.398  0.509  0.560-  57 1.81  55 1.88  54 1.89  60 2.48  29 2.58
  60  0.567  0.598  0.582-  57 1.89  58 1.94  56 1.99  59 2.48

  LATTYP: Found a triclinic cell.
 ALAT       =    12.8621000000
 B/A-ratio  =     1.5493504171
 C/A-ratio  =     0.9637384253
 COS(alpha) =     0.0040212278
 COS(beta)  =     0.0091907744
 COS(gamma) =     0.0099237792

  Lattice vectors:

 A1 = (  12.8621000000,   0.0000000000,   0.0000000000)
 A2 = (   0.1977600802,  -0.0783203643,  19.9267647972)
 A3 = (   0.1139260828, -12.3951764545,   0.0000000000)

Analysis of symmetry for initial positions (statically):
 Subroutine PRICEL returns:
 Original cell was already a primitive cell.

 Routine SETGRP: Setting up the symmetry group for a
 triclinic supercell.

 Subroutine GETGRP returns: Found  1 space group operations
 (whereof  1 operations were pure point group operations)
 out of a pool of  2 trial point group operations.

The static configuration has the point symmetry C_1 .

Analysis of symmetry for dynamics (positions and initial velocities):
 Subroutine PRICEL returns:
 Original cell was already a primitive cell.

[...]

The dynamic configuration has the point symmetry C_1 .

Analysis of structural, dynamic, and magnetic symmetry:
 Subroutine PRICEL returns:
 Original cell was already a primitive cell.

 Routine SETGRP: Setting up the symmetry group for a
 triclinic supercell.

 Subroutine GETGRP returns: Found  1 space group operations
 (whereof  1 operations were pure point group operations)
 out of a pool of  2 trial point group operations.

The magnetic configuration has the point symmetry C_1 .

 Subroutine INISYM returns: Found  1 space group operations
 (whereof  1 operations are pure point group operations),
 and found     1 'primitive' translations

 KPOINTS: KPOINTS created by Atomic Simulation Env

Automatic generation of k-mesh.
Space group operators:
 irot       det(A)        alpha          n_x          n_y          n_z        tau_x        tau_y        tau_z
    1     1.000000     0.000000     1.000000     0.000000     0.000000     0.000000     0.000000     0.000000

 Subroutine IBZKPT returns following result:

 Found      2 irreducible k-points:

 Following reciprocal coordinates:
            Coordinates               Weight
  0.250000  0.250000  0.000000      2.000000
 -0.250000  0.250000  0.000000      2.000000

 Following cartesian coordinates:
            Coordinates               Weight
  0.019437  0.020348 -0.000113      2.000000
 -0.019437  0.019990  0.000271      2.000000

 Subroutine IBZKPT_HF returns following result:

 Found      4 k-points in 1st BZ
 the following      4 k-points will be used (e.g. in the exchange kernel)
 Following reciprocal coordinates:   # in IRBZ
  0.250000  0.250000  0.000000    0.25000000   1 t-inv F
 -0.250000  0.250000  0.000000    0.25000000   2 t-inv F
 -0.250000 -0.250000  0.000000    0.25000000   1 t-inv T
  0.250000 -0.250000  0.000000    0.25000000   2 t-inv T

 SYSTEM =  unknown system
 POSCAR =   C  N Fe  V

 Startparameter for this run:
   NWRITE =      2    write-flag & timer
   PREC   = accura    normal or accurate (medium, high low for compatibility)
   ISTART =      1    job   : 0-new  1-cont  2-samecut
   ICHARG =      0    charge: 1-file 2-atom 10-const
   ISPIN  =      2    spin polarized calculation?
   LNONCOLLINEAR =      F non collinear calculations
   LSORBIT =      F    spin-orbit coupling
   INIWAV =      1    electr: 0-lowe 1-rand  2-diag
   LASPH  =      T    aspherical Exc in radial PAW
   METAGGA=      F    non-selfconsistent MetaGGA calc.

 Electronic Relaxation 1
   ENCUT  =  500.0 eV  36.75 Ry    6.06 a.u.  23.45 22.60 36.33*2*pi/ulx,y,z
   ENINI  =  500.0     initial cutoff
   ENAUG  =  644.9 eV  augmentation charge cutoff
   NELM   =    250;   NELMIN=  2; NELMDL=  0     # of ELM steps
   EDIFF  = 0.1E-03   stopping-criterion for ELM
   LREAL  =      F    real-space projection
   NLSPLINE    = F    spline interpolate recip. space projectors
   LCOMPAT=      F    compatible to vasp.4.4
   GGA_COMPAT  = T    GGA compatible to vasp.4.4-vasp.4.6
   LMAXPAW     = -100 max onsite density
   LMAXMIX     =    2 max onsite mixed and CHGCAR
   VOSKOWN=      0    Vosko Wilk Nusair interpolation
   ROPT   =    0.00000   0.00000   0.00000   0.00000
 Ionic relaxation
   EDIFFG = -.3E-01   stopping-criterion for IOM
   NSW    =      0    number of steps for IOM
   NBLOCK =      1;   KBLOCK =      1    inner block; outer block
   IBRION =     -1    ionic relax: 0-MD 1-quasi-New 2-CG
   NFREE  =      1    steps in history (QN), initial steepest desc. (CG)
   ISIF   =      2    stress and relaxation
   IWAVPR =     10    prediction:  0-non 1-charg 2-wave 3-comb
   ISYM   =      3    0-nonsym 1-usesym 2-fastsym
   LCORR  =      T    Harris-Foulkes like correction to forces

   POTIM  = 0.5000    time-step for ionic-motion
   TEIN   =    0.0    initial temperature
   TEBEG  =    0.0;   TEEND  =   0.0 temperature during run
   SMASS  =  -3.00    Nose mass-parameter (am)
   estimated Nose-frequenzy (Omega)   =  0.10E-29 period in steps =****** mass=  -0.378E-26a.u.
   SCALEE = 1.0000    scale energy and forces
   NPACO  =    256;   APACO  = 16.0  distance and # of slots for P.C.
   PSTRESS=    0.0 pullay stress

  Mass of Ions in am
   POMASS =  12.01 14.00 55.85 50.94
  Ionic Valenz
   ZVAL   =   4.00  5.00  8.00  5.00
  Atomic Wigner-Seitz radii
  virtual crystal weights
   VCA    =   1.00  1.00  1.00  1.00
   NELECT =     250.0000    total number of electrons
   NUPDOWN=      -1.0000    fix difference up-down

 DOS related values:
   EMIN   =  10.00;   EMAX   =-10.00  energy-range for DOS
   EFERMI =   0.00
   ISMEAR =     0;   SIGMA  =   0.10  broadening in eV -4-tet -1-fermi 0-gaus

 Electronic relaxation 2 (details)
   IALGO  =     53    algorithm
   LDIAG  =      T    sub-space diagonalisation (order eigenvalues)
   LSUBROT=      F    optimize rotation matrix (better conditioning)
   TURBO    =      0    0=normal 1=particle mesh
   IRESTART =      0    0=no restart 2=restart with 2 vectors
   NREBOOT  =      0    no. of reboots
   NMIN     =      0    reboot dimension
   EREF     =   0.00    reference energy to select bands
   IMIX   =      4    mixing-type and parameters
     AMIX     =   0.40;   BMIX     =  1.00
     AMIX_MAG =   1.60;   BMIX_MAG =  1.00
     AMIN     =   0.10
     WC   =   100.;   INIMIX=   1;  MIXPRE=   1;  MAXMIX= -45

 Intra band minimization:
   WEIMIN = 0.0000     energy-eigenvalue tresh-hold
[...]
   46        0.858   1.733   0.000   2.592
   47        0.851   1.704   0.000   2.554
   48        0.845   1.733   0.000   2.579
   49        0.862   1.764   0.000   2.626
   50        0.864   1.763   0.000   2.627
   51        0.866   1.760   0.000   2.626
   52        0.864   1.771   0.000   2.635
   53        0.864   1.763   0.000   2.627
   54        1.231   2.693   0.000   3.925
   55        1.230   2.712   0.000   3.942
   56        1.234   2.696   0.000   3.930
   57        1.259   2.590   0.000   3.849
   58        1.230   2.680   0.000   3.910
   59        0.510   0.653   6.239   7.402
   60        0.482   0.627   3.715   4.824
tot         52.858 107.705   9.954 170.517

 magnetization (x)

[...]

  FORCE on cell =-STRESS in cart. coord.  units (eV):
  Direction    XX          YY          ZZ          XY          YZ          ZX
  Alpha Z   105.80934   105.80934   105.80934
  Ewald   48096.89598 47822.65179-55927.11051    23.07446    78.82771   103.98754
  Hartree 47551.16530 47366.56292-46505.87741    11.46589    80.12307    45.09022
  E(xc)    -727.00225  -727.13061  -740.35990    -0.04763     0.03020     0.27124
  Local  -98347.89964-97894.93284 99252.82941   -33.06971  -160.92892  -143.16736
  n-local  -177.05772  -177.37565  -170.33054    -0.24064    -0.07085     0.45444
  augment    36.67190    36.49993    41.06288     0.65250    -1.71167    -0.70379
  Kinetic  3727.46317  3733.33888  4228.43462    -0.64853     1.44070    -6.88722
  Fock     -308.36781  -307.72761  -286.33458    -0.81452     2.90362     0.55516
  Total     -42.32173   -42.30385    -1.87668     0.37181     0.61385    -0.39977
  in kB     -21.34384   -21.33482    -0.94645     0.18751     0.30958    -0.20162

 VOLUME and BASIS-vectors are now :
  energy-cutoff  :      500.00
  volume of cell :     3176.88
      direct lattice vectors                 reciprocal lattice vectors
    12.862100000  0.000000000  0.000000000     0.077747802  0.000714593 -0.000768787
    -0.113926083 12.395176454  0.000000000     0.000000000  0.080676544  0.000317092
     0.197760080 -0.078320364 19.926764797     0.000000000  0.000000000  0.050183761

  length of vectors
    12.862100000 12.395700000 19.927900000     0.077754886  0.080677167  0.050183761

 FORCES acting on ions:
    Electron-Ion                     Ewald-Force                    Non-Local-Force
   0.307E+01 -.223E+01 0.305E+02   -.315E+01 0.212E+01 -.305E+02   0.273E-01 0.101E+00 0.719E-01
   -.705E+00 -.714E+00 0.365E+02   0.920E+00 0.658E+00 -.366E+02   -.194E+00 0.846E-01 0.589E-01
   0.397E+01 -.619E+00 0.314E+02   -.389E+01 0.610E+00 -.313E+02   -.403E-01 -.125E-01 -.629E-01
   0.107E+02 0.653E-01 0.343E+02   -.109E+02 -.186E+00 -.342E+02   0.237E+00 0.104E+00 -.157E+00
   0.461E+01 0.214E+01 0.254E+02   -.459E+01 -.220E+01 -.254E+02   0.262E-01 0.675E-01 0.699E-01
   0.131E+01 0.571E+01 0.325E+02   -.130E+01 -.608E+01 -.325E+02   -.341E-01 0.362E+00 0.597E-01
   0.120E+01 0.429E+01 0.293E+02   -.124E+01 -.446E+01 -.292E+02   -.110E-01 0.140E+00 -.586E-01
   0.129E+02 0.887E+01 0.117E+02   -.131E+02 -.903E+01 -.117E+02   0.209E+00 0.242E-01 0.110E-01
   0.159E+02 0.471E+02 0.144E+02   -.178E+02 -.503E+02 -.153E+02   0.177E+01 0.337E+01 0.101E+01
   0.116E+02 0.470E+01 0.118E+02   -.117E+02 -.466E+01 -.118E+02   0.186E+00 -.776E-02 -.406E-02
   0.135E+02 0.957E+01 0.244E+02   -.138E+02 -.993E+01 -.244E+02   0.282E+00 0.307E+00 0.979E-01
   0.250E+02 -.376E+02 -.188E+02   -.266E+02 0.409E+02 0.182E+02   0.171E+01 -.360E+01 0.591E+00
   0.722E+01 -.623E+01 0.966E+01   -.723E+01 0.654E+01 -.958E+01   0.207E-01 -.317E+00 -.697E-01
   0.165E+02 -.819E+01 0.204E+01   -.169E+02 0.855E+01 -.215E+01   0.295E+00 -.325E+00 0.668E-01
   0.150E+02 -.123E+02 -.289E+02   -.146E+02 0.125E+02 0.289E+02   -.300E+00 -.659E-01 -.404E-01
   0.825E+01 -.785E+01 0.118E+02   -.816E+01 0.797E+01 -.120E+02   -.755E-01 -.349E-01 0.205E+00
   0.132E+01 -.284E+01 0.324E+02   -.108E+01 0.293E+01 -.325E+02   -.168E+00 -.748E-01 0.882E-01
   0.462E+01 -.499E+01 0.205E+02   -.459E+01 0.513E+01 -.205E+02   -.227E-01 -.876E-01 0.696E-01
   0.738E+01 -.560E+01 0.205E+02   -.758E+01 0.570E+01 -.202E+02   0.158E+00 -.119E+00 -.329E+00
   0.408E+00 0.173E+01 0.663E+02   -.791E+00 -.171E+01 -.662E+02   0.351E+00 -.678E-01 -.707E-01
   0.640E+01 0.614E+01 0.568E+02   -.690E+01 -.647E+01 -.568E+02   0.442E+00 0.338E+00 0.832E-01
   0.458E+01 -.681E+00 0.623E+02   -.478E+01 0.601E+00 -.624E+02   0.158E+00 0.328E-01 0.161E+00
   -.533E+01 0.619E+01 0.759E+02   0.542E+01 -.650E+01 -.760E+02   -.944E-01 0.305E+00 0.128E+00
   0.108E+01 0.129E+02 0.738E+02   -.123E+01 -.134E+02 -.737E+02   0.237E+00 0.621E+00 -.133E-01
   0.363E+02 0.312E+02 0.283E+02   -.386E+02 -.344E+02 -.292E+02   0.233E+01 0.313E+01 0.919E+00
   0.795E+01 0.123E+02 0.605E+02   -.841E+01 -.128E+02 -.606E+02   0.303E+00 0.511E+00 0.142E+00
   -.122E+02 0.151E+02 0.786E+02   0.128E+02 -.162E+02 -.793E+02   -.515E+00 0.904E+00 0.670E+00
   -.187E+02 0.174E+02 0.309E+02   0.203E+02 -.205E+02 -.325E+02   -.170E+01 0.330E+01 0.184E+01
   0.267E+02 -.467E+02 -.802E+02   -.278E+02 0.483E+02 0.789E+02   0.112E+01 -.161E+01 0.158E+01
   0.168E+02 -.197E+02 0.140E+02   -.190E+02 0.228E+02 -.145E+02   0.239E+01 -.324E+01 0.593E+00
   0.618E+01 -.418E+01 0.378E+02   -.641E+01 0.415E+01 -.380E+02   0.233E+00 0.797E-01 0.250E+00
   -.641E+00 -.894E+01 0.233E+01   0.106E+00 0.858E+01 -.238E+01   0.459E+00 0.414E+00 0.836E-01
   -.346E+01 -.804E+01 0.544E+02   0.332E+01 0.846E+01 -.547E+02   0.657E-03 -.350E+00 0.309E+00
   -.416E+01 -.107E+01 0.465E+02   0.439E+01 0.109E+01 -.465E+02   -.156E+00 -.253E-01 0.208E-02
   -.504E+01 0.337E+01 0.680E+02   0.510E+01 -.341E+01 -.679E+02   -.838E-01 0.112E+00 -.107E-01
   -.693E+01 0.486E+00 0.558E+02   0.720E+01 -.494E+00 -.559E+02   -.300E+00 -.832E-01 0.106E+00
   -.310E+01 0.275E+01 0.458E+02   0.331E+01 -.280E+01 -.458E+02   -.225E+00 0.514E-01 0.368E-01
   -.600E+01 0.201E+01 0.505E+02   0.636E+01 -.210E+01 -.505E+02   -.236E+00 0.691E-01 -.169E-01
   -.152E+02 0.556E+01 0.619E+02   0.157E+02 -.586E+01 -.618E+02   -.549E+00 0.247E+00 -.930E-01
   -.890E+01 0.573E+01 0.655E+02   0.921E+01 -.602E+01 -.655E+02   -.373E+00 0.285E+00 0.134E+00
   -.245E+01 0.163E+01 0.410E+02   0.259E+01 -.174E+01 -.411E+02   -.146E+00 0.618E-01 0.489E-01
   -.773E+01 0.242E+01 0.353E+02   0.827E+01 -.241E+01 -.353E+02   -.483E+00 -.214E-01 0.916E-01
   -.396E+02 -.183E+02 0.114E+02   0.434E+02 0.182E+02 -.129E+02   -.364E+01 -.912E-01 0.137E+01
   -.164E+02 -.491E+00 0.422E+02   0.172E+02 0.401E+00 -.423E+02   -.709E+00 0.212E+00 0.183E+00
   0.775E+00 -.406E+01 0.142E+02   -.830E+00 0.406E+01 -.141E+02   0.121E-01 -.179E-01 -.656E-01
   -.603E-01 -.814E+00 0.395E+01   0.364E+00 0.877E+00 -.398E+01   -.214E+00 -.596E-01 0.290E-01
   -.357E+02 0.119E+02 0.867E+01   0.393E+02 -.115E+02 -.102E+02   -.352E+01 -.189E+00 0.149E+01
   -.813E+01 -.431E+01 -.591E+01   0.855E+01 0.446E+01 0.523E+01   -.396E+00 -.112E+00 0.628E+00
   0.116E+00 -.584E+00 0.125E+02   0.752E-01 0.629E+00 -.125E+02   -.179E+00 -.493E-01 -.335E-01
   -.481E+01 -.276E+01 0.288E+02   0.527E+01 0.281E+01 -.289E+02   -.414E+00 0.418E-02 0.866E-01
   -.759E+01 -.496E+01 0.439E+02   0.780E+01 0.533E+01 -.438E+02   -.124E+00 -.293E+00 -.850E-01
   -.137E+02 -.343E+01 0.296E+02   0.142E+02 0.369E+01 -.296E+02   -.541E+00 -.350E+00 0.583E-01
   -.195E+01 -.417E+00 0.369E+02   0.208E+01 0.514E+00 -.369E+02   -.182E+00 -.815E-01 0.403E-01
   0.917E+00 0.927E+01 -.254E+02   0.179E+02 -.876E+01 0.272E+02   -.184E+02 -.270E+00 -.221E+01
   0.242E+02 -.770E+00 -.287E+02   -.332E+02 0.164E+02 0.336E+02   0.893E+01 -.150E+02 -.513E+01
   0.843E+01 -.607E+02 -.574E+02   -.196E+02 0.773E+02 0.624E+02   0.105E+02 -.158E+02 -.494E+01
   -.164E+02 -.656E+02 -.478E+03   0.228E+02 0.624E+02 0.496E+03   -.591E+01 0.362E+01 -.180E+02
   0.171E+02 0.388E+02 -.481E+02   -.277E+02 -.545E+02 0.519E+02   0.998E+01 0.151E+02 -.384E+01
   0.181E+02 0.815E+02 -.479E+03   -.163E+02 -.807E+02 0.477E+03   -.193E+01 -.157E+01 0.282E+01
   -.101E+03 0.629E+01 -.459E+03   0.958E+02 -.533E+01 0.452E+03   0.525E+01 -.109E+01 0.725E+01
   -.637E+01 0.118E+02 0.133E+02   0.583E-12 0.639E-13 0.568E-13   0.576E+01 -.111E+02 -.117E+02

 POSITION                                       TOTAL-FORCE (eV/Angst)
      2.94451     -0.03069      9.81360        -0.054225     -0.004275      0.022458
      0.81291      1.20791      9.72244         0.008636      0.029802      0.022541
      1.51824     -0.03576      9.77112         0.040762     -0.020484      0.029606
      3.65189      1.22095      9.78593         0.065003     -0.014201      0.011278
      2.95550      2.48261      9.84111         0.044246      0.009716      0.026420
      0.78054      3.68611      9.80233        -0.020259      0.012086     -0.006367
      1.51879      2.45904      9.78293        -0.057241     -0.025256     -0.000035
      3.67461      3.73649      9.99060         0.052251     -0.148507     -0.051442
      2.88300      4.97402     10.08636        -0.107870      0.389626      0.161219
      0.71558      6.16956      9.97596         0.091293      0.036679      0.006771
      1.46090      4.93658      9.93501         0.046244     -0.033960      0.087084
      2.81572      7.41034     10.27405         0.103752     -0.508571      0.030976
      0.68257      8.64285      9.97759         0.012212     -0.026610      0.001312
      1.40373      7.41542     10.07182        -0.084606      0.019001     -0.037003
      3.53955      8.66704     10.34910         0.082266      0.082261     -0.032441
      2.83169      9.88273     10.04941         0.003861      0.074685     -0.016760
      0.69347     11.11500      9.79984         0.070564      0.009746      0.044128
      1.40283      9.87962      9.92896         0.012954      0.048098      0.023443
      3.54327     11.12632      9.93310        -0.031327     -0.016935     -0.001103
      7.10891     12.33428      9.68297        -0.011257     -0.049303      0.068888
      5.07511      1.19377      9.72519        -0.042315      0.036199      0.051075
      5.68222     12.34992      9.73509        -0.035825     -0.048976      0.063824
      7.94436      1.16555      9.60002        -0.010109      0.011307      0.050916
      7.22641      2.38829      9.66391         0.103311      0.118879      0.087888
      5.12784      3.66202      9.99372         0.130151      0.019979      0.065355
      5.79792      2.42001      9.75432        -0.144052      0.023554      0.087642
      7.96068      3.59991      9.74470         0.058405     -0.190185      0.033691
      7.26820      4.77375     10.08460        -0.207269      0.324720      0.395754
      4.94387      8.79524     10.72197         0.086595     -0.088487      0.372787
      7.13974      9.90799     10.12109         0.295793     -0.236799      0.182029
      4.97846     11.12247      9.92737         0.013996      0.064493      0.052479
      5.70121      9.92613     10.22187        -0.062678      0.084776      0.047507
      7.83366     11.11127      9.81026        -0.136593      0.045179      0.038929
     11.41558     12.34439      9.66857         0.066005     -0.007352      0.024735
      9.37677      1.17259      9.58788        -0.024542      0.071209      0.075733
      9.98264     12.33600      9.64585        -0.052547     -0.094108      0.042423
     12.24441      1.19420      9.66065        -0.025940      0.010911      0.026250
     11.52231      2.42630      9.64941         0.102477     -0.016982      0.032820
      9.37743      3.63103      9.70297        -0.043327     -0.041424      0.061481
     10.09478      2.40801      9.60992        -0.083470      0.004075      0.057123
     12.21456      3.67638      9.73528        -0.011370     -0.045223      0.006390
     11.48031      4.90670      9.81193         0.026523     -0.005097      0.019996
      9.29478      6.06739     10.07552         0.014320     -0.208092     -0.013726
     10.05655      4.88073      9.83416        -0.024310      0.132185      0.078871
     12.14776      6.16033      9.92334        -0.041687     -0.027494     -0.009522
     11.39128      7.38697      9.98323         0.085213      0.003210     -0.004392
      9.24430      8.66214     10.09785        -0.102107      0.144417      0.020290
      9.94242      7.37368     10.08365         0.009323      0.028147     -0.016603
     12.11266      8.62789      9.93320         0.002345     -0.003722      0.008458
     11.40780      9.86709      9.84131         0.028211      0.043124      0.014540
      9.26582     11.10780      9.76727         0.081200      0.062409      0.013702
      9.97849      9.87172      9.88445        -0.025689     -0.103613      0.031592
     12.12476     11.10603      9.75375        -0.054819      0.013035      0.022337
      3.47217      6.19473     10.34930        -1.144602      0.211997     -0.566174
      5.91352      4.76953     10.28291         0.683805     -0.775522     -0.650100
      7.93901      5.94196     10.33828         0.237932     -0.589589     -0.401934
      5.55742      7.96864     11.61395        -0.016020      0.699412     -0.845808
      7.87663      8.75014     10.35254         0.194074      0.688062     -0.431684
      5.17335      6.26083     11.16127         0.238458     -0.183409      0.486304
      7.34621      7.36729     11.60146        -0.436125     -0.038802     -0.003953
    total drift:                                0.004242      0.004580     -0.003287

  FREE ENERGIE OF THE ION-ELECTRON SYSTEM (eV)
  free  energy   TOTEN  =      -631.42963425 eV

  energy  without entropy=     -631.42507841  energy(sigma->0) =     -631.42735633

 stress matrix after NEB project (eV)
    -42.32173      0.37073     -0.39977
      0.37181    -42.30385      0.61175
     -0.39869      0.61385     -1.87668
  FORCES: max atom, RMS     1.294454    0.359486
  FORCE total and by dimension    2.784569    1.144602
  Stress total and by dimension   59.879977   42.321727
 writing wavefunctions

 total charge

[...]

 magnetization (x)

# of ion       s       p       d       tot
    1       -0.002  -0.023   0.000  -0.024
    2       -0.002  -0.030   0.000  -0.032
    3        0.001   0.013   0.000   0.014
    4        0.001   0.011   0.000   0.012
    5       -0.002  -0.018   0.000  -0.020
    6       -0.002  -0.033   0.000  -0.035
    7        0.002   0.020   0.000   0.022
    8        0.002   0.019   0.000   0.022
    9       -0.003  -0.046   0.000  -0.048
   10       -0.002  -0.032   0.000  -0.034
   11        0.002   0.019   0.000   0.021
   12       -0.001  -0.022   0.000  -0.023
   13       -0.002  -0.034   0.000  -0.037
   14        0.002   0.020   0.000   0.022
   15        0.001   0.003   0.000   0.004
   16       -0.002  -0.022   0.000  -0.024
   17       -0.002  -0.021   0.000  -0.023
   18        0.001   0.012   0.000   0.013
   19        0.001   0.012   0.000   0.014
   20       -0.001  -0.017   0.000  -0.018
   21       -0.001  -0.018   0.000  -0.019
   22        0.000   0.001   0.000   0.001
   23        0.001   0.009   0.000   0.010
   24       -0.001  -0.013   0.000  -0.014
   25       -0.001  -0.028   0.000  -0.029
   26        0.001   0.007   0.000   0.008
   27        0.000   0.002   0.000   0.002
   28        0.001   0.005   0.000   0.006
   29        0.003  -0.009   0.000  -0.005
   30        0.000  -0.011   0.000  -0.011
   31       -0.001  -0.010   0.000  -0.011
   32        0.000   0.006   0.000   0.006
   33        0.001   0.004   0.000   0.005
   34       -0.002  -0.034   0.000  -0.037
   35       -0.001  -0.015   0.000  -0.017
   36        0.001   0.011   0.000   0.012
   37        0.002   0.017   0.000   0.019
   38       -0.002  -0.030   0.000  -0.033
   39       -0.001  -0.017   0.000  -0.018
   40        0.001   0.014   0.000   0.015
   41        0.002   0.017   0.000   0.019
   42       -0.003  -0.041   0.000  -0.044
   43       -0.002  -0.039   0.000  -0.041
   44        0.002   0.014   0.000   0.015
   45        0.002   0.021   0.000   0.023
   46       -0.002  -0.025   0.000  -0.026
   47       -0.002  -0.041   0.000  -0.043
   48        0.002   0.017   0.000   0.019
   49        0.002   0.016   0.000   0.017
   50       -0.002  -0.029   0.000  -0.031
   51       -0.002  -0.025   0.000  -0.026
   52        0.002   0.015   0.000   0.017
   53        0.002   0.018   0.000   0.020
   54        0.001   0.019   0.000   0.019
   55       -0.001  -0.020   0.000  -0.021
   56       -0.004  -0.022   0.000  -0.026
   57       -0.006  -0.061   0.000  -0.067
   58       -0.006  -0.057   0.000  -0.063
   59        0.025   0.054   2.862   2.941
   60        0.021   0.016   1.664   1.700
tot          0.026  -0.434   4.526   4.118