 vasp.5.4.4.18Apr17-6-g9f103f2a35 (build Feb 25 2019 10:51:38) complex

 executed on             LinuxIFC date 2021.03.10  02:57:59

 INCAR:
 POTCAR:    PAW_PBE C 08Apr2002
 POTCAR:    PAW_PBE N 08Apr2002
 POTCAR:    PAW_PBE Fe 06Sep2000
 POTCAR:    PAW_PBE Ni 02Aug2007

 POTCAR:    PAW_PBE C 08Apr2002
   VRHFIN =C: s2p2

   TITEL  = PAW_PBE C 08Apr2002
   POMASS =   12.011; ZVAL   =    4.000    mass and valenz
   ENMAX  =  400.000; ENMIN  =  300.000 eV

 POTCAR:    PAW_PBE N 08Apr2002
   VRHFIN =N: s2p3

   TITEL  = PAW_PBE N 08Apr2002
   POMASS =   14.001; ZVAL   =    5.000    mass and valenz
   ENMAX  =  400.000; ENMIN  =  300.000 eV

 POTCAR:    PAW_PBE Fe 06Sep2000
   VRHFIN =Fe:  d7 s1

   TITEL  = PAW_PBE Fe 06Sep2000
   POMASS =   55.847; ZVAL   =    8.000    mass and valenz
   ENMAX  =  267.882; ENMIN  =  200.911 eV

 POTCAR:    PAW_PBE Ni 02Aug2007
   VRHFIN =Ni:

   TITEL  = PAW_PBE Ni 02Aug2007
   POMASS =   58.690; ZVAL   =   10.000    mass and valenz
   ENMAX  =  269.532; ENMIN  =  202.149 eV

  PAW_PBE C 08Apr2002                   :
  PAW_PBE N 08Apr2002                   :
  PAW_PBE Fe 06Sep2000                  :
  PAW_PBE Ni 02Aug2007                  :

 POSCAR:  C  N Fe Ni
  positions in cartesian coordinates
 exchange correlation table for  LEXCH =        8
   RHO(1)=    0.500       N(1)  =     2000
   RHO(2)=  100.500       N(2)  =     4000

 VTST: version 3.2, (02/03/18)

 CHAIN: initializing optimizer

 OPT: Using VASP Conjugate-Gradient optimizer
 CHAIN: Read ICHAIN            0

 POSCAR:  C  N Fe Ni
  positions in cartesian coordinates

 ion  position               nearest neighbor table
   1  0.221  0.004  0.499-  19 1.43   4 1.43   3 1.43
   2  0.056  0.103  0.499-   3 1.42   7 1.43  38 1.43
   3  0.110  0.003  0.499-   2 1.42  17 1.43   1 1.43
   4  0.278  0.104  0.499-   1 1.43  21 1.43   5 1.44
   5  0.224  0.206  0.499-   7 1.43   4 1.44   8 1.45
   6  0.058  0.303  0.499-   7 1.43  11 1.43  42 1.43
   7  0.113  0.204  0.499-   6 1.43   2 1.43   5 1.43
   8  0.281  0.309  0.499-  25 1.44   5 1.45   9 1.45
   9  0.224  0.410  0.500-  55 1.39  11 1.44   8 1.45
  10  0.054  0.502  0.499-  46 1.42  14 1.42  11 1.43
  11  0.113  0.405  0.499-   6 1.43  10 1.43   9 1.44
  12  0.216  0.605  0.501-  55 1.39  14 1.40  15 1.42
  13  0.052  0.703  0.499-  18 1.41  50 1.42  14 1.42
  14  0.107  0.604  0.500-  12 1.40  10 1.42  13 1.42
  15  0.272  0.705  0.502-  58 1.38  16 1.41  12 1.42
  16  0.218  0.804  0.500-  15 1.41  19 1.42  18 1.42
  17  0.053  0.903  0.498-  18 1.42   3 1.43  54 1.43
  18  0.107  0.803  0.499-  13 1.41  17 1.42  16 1.42
  19  0.275  0.903  0.500-  16 1.42   1 1.43  32 1.43
  20  0.553  0.997  0.498-  23 1.43  22 1.43  34 1.44
  21  0.389  0.101  0.499-  26 1.43   4 1.43  22 1.45
  22  0.443  0.999  0.499-  20 1.43  32 1.43  21 1.45
  23  0.611  0.097  0.499-  24 1.43  20 1.43  36 1.43
  24  0.556  0.198  0.500-  27 1.41  23 1.43  26 1.43
  25  0.393  0.305  0.498-  56 1.38   8 1.44  26 1.45
  26  0.446  0.202  0.499-  21 1.43  24 1.43  25 1.45
  27  0.615  0.296  0.502-  24 1.41  40 1.42  28 1.42
  28  0.560  0.396  0.503-  56 1.40  27 1.42  29 1.44  60 2.07
  29  0.616  0.498  0.502-  57 1.40  44 1.41  28 1.44  60 2.09
  30  0.607  0.692  0.496-  57 1.38  48 1.44  31 1.45
  31  0.549  0.792  0.498-  33 1.45  34 1.45  30 1.45
  32  0.386  0.899  0.499-  19 1.43  22 1.43  33 1.45
  33  0.437  0.795  0.500-  58 1.39  31 1.45  32 1.45
  34  0.607  0.895  0.498-  20 1.44  52 1.44  31 1.45
  35  0.887  0.000  0.498-  54 1.42  38 1.43  37 1.44
  36  0.722  0.098  0.499-  37 1.42  41 1.43  23 1.43
  37  0.776  0.998  0.498-  36 1.42  52 1.43  35 1.44
  38  0.945  0.101  0.499-  39 1.42  35 1.43   2 1.43
  39  0.890  0.200  0.500-  38 1.42  42 1.43  41 1.43
  40  0.725  0.298  0.502-  27 1.42  41 1.42  45 1.42
  41  0.779  0.198  0.500-  40 1.42  36 1.43  39 1.43
  42  0.946  0.301  0.500-  43 1.42  39 1.43   6 1.43
  43  0.890  0.400  0.500-  46 1.42  45 1.42  42 1.42
  44  0.726  0.498  0.501-  49 1.41  29 1.41  45 1.42
  45  0.780  0.398  0.501-  40 1.42  43 1.42  44 1.42
  46  0.944  0.501  0.499-  10 1.42  43 1.42  47 1.43
  47  0.888  0.600  0.498-  50 1.42  49 1.42  46 1.43
  48  0.719  0.697  0.497-  53 1.42  49 1.43  30 1.44
  49  0.778  0.599  0.498-  44 1.41  47 1.42  48 1.43
  50  0.942  0.702  0.498-  47 1.42  13 1.42  51 1.42
  51  0.885  0.800  0.497-  50 1.42  54 1.43  53 1.43
  52  0.718  0.897  0.497-  53 1.43  37 1.43  34 1.44
  53  0.774  0.798  0.497-  48 1.42  52 1.43  51 1.43
  54  0.942  0.901  0.498-  35 1.42  51 1.43  17 1.43
  55  0.274  0.511  0.502-   9 1.39  12 1.39  59 1.89
  56  0.452  0.400  0.497-  25 1.38  28 1.40  59 1.91  60 2.30
  57  0.558  0.592  0.495-  30 1.38  29 1.40  59 1.89  60 2.35
  58  0.379  0.700  0.502-  15 1.38  33 1.39  59 1.91
  59  0.417  0.550  0.503-  57 1.89  55 1.89  56 1.91  58 1.91  60 2.39
  60  0.530  0.490  0.589-  28 2.07  29 2.09  56 2.30  57 2.35  59 2.39

  LATTYP: Found a triclinic cell.
 ALAT       =    12.2966000000
 B/A-ratio  =     1.4377908688
 C/A-ratio  =     2.2141298814
 COS(alpha) =     0.0101942360
 COS(beta)  =     0.5001088667
 COS(gamma) =     0.6846169898

  Lattice vectors:

 A1 = (  -0.1837689738,  12.2952267374,   0.0000000000)
 A2 = (  12.7046310262,  12.2952267374,   0.0000000000)
 A3 = ( -12.6101482908,  13.4291436692, -20.0477432967)

Analysis of symmetry for initial positions (statically):
 Subroutine PRICEL returns:
 Original cell was already a primitive cell.

 Routine SETGRP: Setting up the symmetry group for a
 triclinic supercell.

 Subroutine GETGRP returns: Found  1 space group operations
 (whereof  1 operations were pure point group operations)
 out of a pool of  2 trial point group operations.

The static configuration has the point symmetry C_1 .

Analysis of symmetry for dynamics (positions and initial velocities):
 Subroutine PRICEL returns:
 Original cell was already a primitive cell.

[...]

The dynamic configuration has the point symmetry C_1 .

Analysis of structural, dynamic, and magnetic symmetry:
 Subroutine PRICEL returns:
 Original cell was already a primitive cell.

 Routine SETGRP: Setting up the symmetry group for a
 triclinic supercell.

 Subroutine GETGRP returns: Found  1 space group operations
 (whereof  1 operations were pure point group operations)
 out of a pool of  2 trial point group operations.

The magnetic configuration has the point symmetry C_1 .

 Subroutine INISYM returns: Found  1 space group operations
 (whereof  1 operations are pure point group operations),
 and found     1 'primitive' translations

 KPOINTS: KPOINTS created by Atomic Simulation Env

Automatic generation of k-mesh.
Space group operators:
 irot       det(A)        alpha          n_x          n_y          n_z        tau_x        tau_y        tau_z
    1     1.000000     0.000000     1.000000     0.000000     0.000000     0.000000     0.000000     0.000000

 Subroutine IBZKPT returns following result:

 Found      2 irreducible k-points:

 Following reciprocal coordinates:
            Coordinates               Weight
  0.250000  0.250000  0.000000      2.000000
 -0.250000  0.250000 -0.000000      2.000000

 Following cartesian coordinates:
            Coordinates               Weight
  0.019397  0.020623  0.001613      2.000000
 -0.019397  0.020043  0.000687      2.000000

 Subroutine IBZKPT_HF returns following result:

 Found      4 k-points in 1st BZ
 the following      4 k-points will be used (e.g. in the exchange kernel)
 Following reciprocal coordinates:   # in IRBZ
  0.250000  0.250000  0.000000    0.25000000   1 t-inv F
 -0.250000  0.250000 -0.000000    0.25000000   2 t-inv F
 -0.250000 -0.250000  0.000000    0.25000000   1 t-inv T
  0.250000 -0.250000  0.000000    0.25000000   2 t-inv T

 SYSTEM =  unknown system
 POSCAR =   C  N Fe Ni

 Startparameter for this run:
   NWRITE =      2    write-flag & timer
   PREC   = accura    normal or accurate (medium, high low for compatibility)
   ISTART =      1    job   : 0-new  1-cont  2-samecut
   ICHARG =      0    charge: 1-file 2-atom 10-const
   ISPIN  =      2    spin polarized calculation?
   LNONCOLLINEAR =      F non collinear calculations
   LSORBIT =      F    spin-orbit coupling
   INIWAV =      1    electr: 0-lowe 1-rand  2-diag
   LASPH  =      T    aspherical Exc in radial PAW
   METAGGA=      F    non-selfconsistent MetaGGA calc.

 Electronic Relaxation 1
   ENCUT  =  500.0 eV  36.75 Ry    6.06 a.u.  23.50 22.42 36.62*2*pi/ulx,y,z
   ENINI  =  500.0     initial cutoff
   ENAUG  =  644.9 eV  augmentation charge cutoff
   NELM   =    250;   NELMIN=  2; NELMDL=  0     # of ELM steps
   EDIFF  = 0.1E-03   stopping-criterion for ELM
   LREAL  =      F    real-space projection
   NLSPLINE    = F    spline interpolate recip. space projectors
   LCOMPAT=      F    compatible to vasp.4.4
   GGA_COMPAT  = T    GGA compatible to vasp.4.4-vasp.4.6
   LMAXPAW     = -100 max onsite density
   LMAXMIX     =    2 max onsite mixed and CHGCAR
   VOSKOWN=      0    Vosko Wilk Nusair interpolation
   ROPT   =    0.00000   0.00000   0.00000   0.00000
 Ionic relaxation
   EDIFFG = -.3E-01   stopping-criterion for IOM
   NSW    =      0    number of steps for IOM
   NBLOCK =      1;   KBLOCK =      1    inner block; outer block
   IBRION =     -1    ionic relax: 0-MD 1-quasi-New 2-CG
   NFREE  =      1    steps in history (QN), initial steepest desc. (CG)
   ISIF   =      2    stress and relaxation
   IWAVPR =     10    prediction:  0-non 1-charg 2-wave 3-comb
   ISYM   =      3    0-nonsym 1-usesym 2-fastsym
   LCORR  =      T    Harris-Foulkes like correction to forces

   POTIM  = 0.5000    time-step for ionic-motion
   TEIN   =    0.0    initial temperature
   TEBEG  =    0.0;   TEEND  =   0.0 temperature during run
   SMASS  =  -3.00    Nose mass-parameter (am)
   estimated Nose-frequenzy (Omega)   =  0.10E-29 period in steps =****** mass=  -0.380E-26a.u.
   SCALEE = 1.0000    scale energy and forces
   NPACO  =    256;   APACO  = 16.0  distance and # of slots for P.C.
   PSTRESS=    0.0 pullay stress

  Mass of Ions in am
   POMASS =  12.01 14.00 55.85 58.69
  Ionic Valenz
   ZVAL   =   4.00  5.00  8.00 10.00
  Atomic Wigner-Seitz radii
  virtual crystal weights
   VCA    =   1.00  1.00  1.00  1.00
   NELECT =     254.0000    total number of electrons
   NUPDOWN=      -1.0000    fix difference up-down

 DOS related values:
   EMIN   =  10.00;   EMAX   =-10.00  energy-range for DOS
   EFERMI =   0.00
   ISMEAR =     0;   SIGMA  =   0.10  broadening in eV -4-tet -1-fermi 0-gaus

 Electronic relaxation 2 (details)
   IALGO  =     53    algorithm
   LDIAG  =      T    sub-space diagonalisation (order eigenvalues)
   LSUBROT=      F    optimize rotation matrix (better conditioning)
   TURBO    =      0    0=normal 1=particle mesh
   IRESTART =      0    0=no restart 2=restart with 2 vectors
   NREBOOT  =      0    no. of reboots
   NMIN     =      0    reboot dimension
   EREF     =   0.00    reference energy to select bands
   IMIX   =      4    mixing-type and parameters
     AMIX     =   0.40;   BMIX     =  1.00
     AMIX_MAG =   1.60;   BMIX_MAG =  1.00
     AMIN     =   0.10
[...]
   48        0.862   1.769   0.000   2.632
   49        0.870   1.785   0.000   2.655
   50        0.871   1.785   0.000   2.656
   51        0.866   1.771   0.000   2.637
   52        0.862   1.766   0.000   2.628
   53        0.866   1.769   0.000   2.635
   54        0.868   1.777   0.000   2.645
   55        1.228   2.674   0.000   3.902
   56        1.231   2.662   0.000   3.892
   57        1.230   2.666   0.000   3.896
   58        1.230   2.670   0.000   3.901
   59        0.491   0.681   6.328   7.500
   60        0.271   0.229   8.644   9.144
tot         52.375 107.059  14.972 174.406

 magnetization (x)

[...]

  FORCE on cell =-STRESS in cart. coord.  units (eV):
  Direction    XX          YY          ZZ          XY          YZ          ZX
  Alpha Z   106.54238   106.54238   106.54238
  Ewald   50713.06155 50687.25492-59170.40337     4.78162   -31.04655    41.22076
  Hartree 50307.75065 50264.56551-49184.11035   -23.37489   -27.98051    33.07977
  E(xc)    -747.73882  -747.62601  -761.68834     0.10313     0.04275    -0.05671
  Local  ************************105026.37633    21.50215    60.35643   -75.29274
  n-local  -129.87106  -127.34214  -125.92287     2.79686    -0.71102     0.83832
  augment   184.83984   191.13891   183.72222     4.82854    -1.30462     1.47584
  Kinetic  3745.13945  3739.08693  4265.70631   -10.33052    -0.15692    -0.19071
  Fock     -368.49220  -370.84345  -340.33257    -1.99330     0.71290    -0.94510
  Total     -36.77585   -35.21176    -0.11026    -1.68641    -0.08754     0.12943
  in kB     -18.54694   -17.75813    -0.05561    -0.85050    -0.04415     0.06528

 VOLUME and BASIS-vectors are now :
  energy-cutoff  :      500.00
  volume of cell :     3176.88
      direct lattice vectors                 reciprocal lattice vectors
    12.888400000  0.000000000  0.000000000     0.077589150  0.001159676  0.001853713
    -0.183768974 12.295226737  0.000000000     0.000000000  0.081332376  0.004600226
    -0.462020683 -1.133916932 20.047743297     0.000000000  0.000000000  0.049880926

  length of vectors
    12.888400000 12.296600000 20.085100000     0.077619954  0.081462368  0.049880926

 FORCES acting on ions:
    Electron-Ion                     Ewald-Force                    Non-Local-Force
   0.618E+01 -.480E+01 0.532E+01   -.639E+01 0.496E+01 -.536E+01   0.200E+00 -.246E+00 0.299E-01
   0.306E+01 -.957E+00 0.555E+01   -.300E+01 0.904E+00 -.558E+01   -.807E-01 0.105E-01 0.230E-01
   0.186E+01 -.233E+01 0.529E+01   -.190E+01 0.237E+01 -.530E+01   0.232E-01 -.121E-01 0.586E-02
   0.971E+01 0.390E+01 0.914E+01   -.983E+01 -.383E+01 -.917E+01   0.160E+00 -.251E-01 0.298E-01
   0.101E+02 0.105E+02 0.103E+02   -.101E+02 -.104E+02 -.103E+02   0.418E-01 -.107E+00 0.350E-01
   0.449E+01 0.943E+01 0.742E+01   -.444E+01 -.979E+01 -.749E+01   -.826E-01 0.279E+00 0.664E-01
   0.309E+01 0.980E+01 0.609E+01   -.304E+01 -.990E+01 -.609E+01   -.568E-01 0.132E+00 -.548E-02
   0.289E+02 0.258E+02 0.193E+02   -.289E+02 -.259E+02 -.193E+02   0.197E+00 -.109E-01 0.490E-01
   0.348E+02 0.488E+02 0.126E+02   -.362E+02 -.517E+02 -.127E+02   0.129E+01 0.308E+01 0.165E+00
   0.116E+02 0.819E+01 0.931E+01   -.119E+02 -.830E+01 -.932E+01   0.282E+00 0.176E+00 0.275E-01
   0.143E+02 0.157E+02 0.872E+01   -.143E+02 -.159E+02 -.872E+01   0.207E+00 0.244E+00 0.943E-02
   0.509E+02 -.257E+02 0.248E+01   -.527E+02 0.284E+02 -.257E+01   0.173E+01 -.262E+01 0.754E-01
   0.993E+01 -.670E+01 0.938E+01   -.101E+02 0.708E+01 -.939E+01   0.982E-01 -.333E+00 0.115E-01
   0.264E+02 -.828E+01 0.790E+01   -.268E+02 0.857E+01 -.793E+01   0.448E+00 -.272E+00 0.421E-01
   0.495E+02 -.348E+02 0.131E+01   -.528E+02 0.350E+02 -.141E+01   0.318E+01 -.188E+00 0.849E-01
   0.196E+02 -.234E+02 0.302E+01   -.201E+02 0.237E+02 -.304E+01   0.456E+00 -.312E+00 0.251E-01
   0.561E+01 -.892E+01 0.716E+01   -.563E+01 0.905E+01 -.718E+01   0.169E-01 -.127E+00 0.289E-01
   0.869E+01 -.135E+02 0.609E+01   -.902E+01 0.135E+02 -.611E+01   0.320E+00 -.582E-01 0.123E-01
   0.644E+01 -.202E+02 0.342E+01   -.660E+01 0.207E+02 -.342E+01   0.713E-01 -.394E+00 -.137E-01
   -.336E+01 0.372E+01 0.111E+02   0.347E+01 -.386E+01 -.111E+02   -.871E-01 0.958E-01 0.419E-01
   0.597E+01 0.167E+02 0.113E+02   -.628E+01 -.169E+02 -.113E+02   0.234E+00 0.174E+00 0.179E-01
   0.307E+01 -.420E+01 0.956E+01   -.283E+01 0.429E+01 -.960E+01   -.220E+00 -.940E-01 0.362E-01
   -.585E+01 0.169E+02 0.102E+02   0.605E+01 -.172E+02 -.102E+02   -.169E+00 0.365E+00 0.456E-01
   -.303E+01 0.424E+02 0.165E+02   0.312E+01 -.431E+02 -.165E+02   0.962E-01 0.640E+00 0.409E-01
   0.510E+02 0.690E+02 0.404E+02   -.535E+02 -.724E+02 -.403E+02   0.240E+01 0.310E+01 -.280E-01
   0.138E+02 0.359E+02 0.212E+02   -.140E+02 -.362E+02 -.212E+02   0.684E-01 0.481E+00 0.112E-01
   -.319E+02 0.527E+02 0.179E+02   0.327E+02 -.537E+02 -.182E+02   -.657E+00 0.865E+00 0.302E+00
   -.622E+02 0.855E+02 0.784E+02   0.656E+02 -.868E+02 -.802E+02   -.311E+01 0.146E+01 0.147E+01
   -.101E+03 0.824E+01 0.784E+02   0.104E+03 -.104E+02 -.801E+02   -.277E+01 0.185E+01 0.142E+01
   -.291E+02 -.789E+02 0.457E+02   0.308E+02 0.827E+02 -.455E+02   -.144E+01 -.357E+01 -.734E-01
   -.826E+01 -.347E+02 0.230E+02   0.823E+01 0.348E+02 -.231E+02   0.872E-01 -.155E+00 0.404E-01
   -.219E+01 -.178E+02 0.720E+01   0.230E+01 0.181E+02 -.722E+01   -.279E-01 -.306E+00 0.169E-01
   -.201E+02 -.564E+02 0.125E+02   0.220E+02 0.591E+02 -.127E+02   -.204E+01 -.271E+01 0.183E+00
   -.419E+01 -.987E+01 0.148E+02   0.421E+01 0.984E+01 -.148E+02   -.387E-02 0.111E+00 0.156E-01
   -.506E+00 -.265E+01 0.852E+01   0.462E+00 0.267E+01 -.853E+01   -.298E-02 -.422E-01 0.227E-01
   -.682E+01 0.101E+02 0.640E+01   0.687E+01 -.102E+02 -.641E+01   -.498E-01 0.776E-01 0.506E-02
   -.717E+01 0.385E+01 0.975E+01   0.719E+01 -.387E+01 -.978E+01   0.378E-01 0.660E-01 0.303E-01
   -.558E+01 0.569E+01 0.613E+01   0.567E+01 -.572E+01 -.615E+01   -.571E-01 0.880E-01 0.285E-01
   -.765E+01 0.741E+01 0.415E+01   0.776E+01 -.751E+01 -.417E+01   -.105E+00 0.795E-01 0.200E-01
   -.289E+02 0.263E+02 0.602E+01   0.294E+02 -.265E+02 -.615E+01   -.518E+00 0.176E+00 0.130E+00
   -.158E+02 0.175E+02 0.404E+01   0.160E+02 -.178E+02 -.410E+01   -.152E+00 0.239E+00 0.511E-01
   -.924E+01 0.991E+01 0.490E+01   0.939E+01 -.100E+02 -.491E+01   -.110E+00 0.112E+00 -.756E-03
   -.158E+02 0.916E+01 0.693E+01   0.160E+02 -.919E+01 -.698E+01   -.209E+00 0.560E-01 0.531E-01
   -.601E+02 0.244E+01 0.207E+02   0.612E+02 -.257E+01 -.211E+02   -.102E+01 0.154E+00 0.302E+00
   -.348E+02 0.136E+02 0.759E+01   0.352E+02 -.139E+02 -.771E+01   -.335E+00 0.373E+00 0.125E+00
   -.521E+01 -.118E+01 0.112E+02   0.515E+01 0.120E+01 -.112E+02   0.876E-01 -.396E-01 0.415E-01
   -.146E+02 -.364E+01 0.168E+02   0.148E+02 0.367E+01 -.168E+02   -.242E+00 -.183E-01 0.466E-01
   -.244E+02 -.304E+02 0.275E+02   0.245E+02 0.308E+02 -.275E+02   -.374E+00 -.343E+00 0.172E-01
   -.333E+02 -.208E+02 0.237E+02   0.338E+02 0.211E+02 -.238E+02   -.453E+00 -.419E+00 0.831E-01
   -.219E+01 -.105E+02 0.147E+02   0.224E+01 0.106E+02 -.148E+02   0.283E-02 -.840E-01 0.723E-01
   -.176E+01 -.105E+02 0.129E+02   0.170E+01 0.107E+02 -.129E+02   0.100E-01 -.104E+00 -.143E-01
   -.393E+01 -.109E+02 0.149E+02   0.386E+01 0.110E+02 -.150E+02   0.819E-01 -.124E+00 0.426E-01
   -.118E+02 -.162E+02 0.174E+02   0.118E+02 0.166E+02 -.174E+02   0.221E-01 -.299E+00 0.269E-01
   -.144E+01 -.461E+01 0.962E+01   0.146E+01 0.468E+01 -.965E+01   -.668E-03 -.563E-01 0.241E-01
   0.314E+02 0.281E+02 0.393E+01   -.121E+02 -.273E+02 -.314E+01   -.183E+02 -.813E+00 -.772E+00
   0.814E+02 0.633E+02 0.148E+03   -.913E+02 -.467E+02 -.154E+03   0.948E+01 -.154E+02 0.560E+01
   -.128E+02 -.979E+02 0.155E+03   -.630E+01 0.976E+02 -.161E+03   0.179E+02 0.159E-01 0.564E+01
   -.101E+02 -.396E+02 0.221E+01   0.196E+02 0.223E+02 -.140E+01   -.890E+01 0.164E+02 -.789E+00
   0.114E+03 -.676E+02 0.907E+02   -.115E+03 0.685E+02 -.909E+02   0.915E+00 -.548E+00 -.597E+00
   -.210E+02 0.761E+01 -.119E+04   0.193E+02 -.681E+01 0.119E+04   0.140E+01 -.649E+00 0.619E+01
   -.284E+00 0.298E-01 -.214E+02   0.412E-12 0.270E-12 0.000E+00   0.143E-01 0.479E+00 0.206E+02

 POSITION                                       TOTAL-FORCE (eV/Angst)
      2.61639     -0.51854     10.00634         0.002414     -0.105383     -0.005974
      0.47092      0.69752     10.00171        -0.021242     -0.052792     -0.002977
      1.18544     -0.52945     10.00090        -0.017658      0.020428     -0.005151
      3.33118      0.71807      9.99940         0.044199      0.026652     -0.002906
      2.62497      1.97176     10.00000        -0.027049     -0.060397     -0.003513
      0.45576      3.15904     10.00866        -0.037092     -0.074599      0.000976
      1.19042      1.93799     10.00528        -0.014901      0.036688     -0.004546
      3.33987      3.23169      9.99978         0.137065     -0.087711     -0.014940
      2.58624      4.47188     10.02625        -0.082319      0.294686      0.019427
      0.37389      5.61206     10.00687        -0.034632      0.079196      0.024392
      1.14763      4.40812     10.01274         0.132729     -0.025577      0.012589
      2.44209      6.87032     10.05227         0.079471     -0.093643     -0.003589
      0.30773      8.08347      9.99549        -0.041816      0.035038      0.003423
      1.04046      6.86161     10.01521         0.047688     -0.015589      0.019266
      3.13836      8.10514     10.05497         0.085578      0.001965     -0.008184
      2.42444      9.32000     10.02741        -0.017277     -0.085139      0.001848
      0.28157     10.53595      9.99330        -0.006323     -0.015935      0.003554
      1.00191      9.31323     10.00481         0.005294     -0.006785     -0.003744
      3.14794     10.54105     10.01874        -0.082471      0.036509     -0.008744
      6.72021     11.68758      9.99144         0.009179     -0.047808      0.001513
      4.75919      0.68110      9.99805        -0.065807     -0.003807     -0.005124
      5.29254     11.72102      9.99883         0.012352     -0.026737     -0.002237
      7.62125      0.62678     10.00615         0.012960      0.089957     -0.000966
      6.90515      1.86162     10.02110         0.187106      0.023393     -0.006346
      4.78272      3.18613      9.98179         0.004596     -0.158061      0.085132
      5.47552      1.91490      9.99812        -0.183214      0.168475      0.005395
      7.63482      3.07284     10.06685         0.051905     -0.065022     -0.038200
      6.90880      4.29449     10.08463         0.129043      0.192770     -0.208831
      7.61557      5.55075     10.07099        -0.107792     -0.202655     -0.230103
      7.47143      7.94989      9.94847         0.181446      0.016167      0.088453
      6.70430      9.17923      9.97568         0.067398     -0.035440     -0.012462
      4.57477     10.48603     10.01202         0.069248     -0.012168      0.000445
      5.25938      9.20823     10.01862        -0.221174     -0.155626      0.016248
      7.42445     10.43612      9.97568         0.024301      0.090324      0.000707
     11.20074     -0.56056      9.98683        -0.043659     -0.033802      0.012274
      9.05138      0.64094     10.01006         0.004251      0.007399     -0.006815
      9.58216     11.70856      9.98584         0.045740      0.044454      0.002905
     11.92479      0.67252     10.00096         0.019025      0.055329      0.009858
     11.20170      1.89478     10.01817        -0.002746     -0.028999     -0.007422
      9.05296      3.09250     10.05911        -0.084442     -0.032591      0.001880
      9.77428      1.87108     10.03116         0.003286     -0.029130     -0.006578
     11.91164      3.13341     10.01833         0.030854      0.003600     -0.005491
     11.16970      4.34814     10.02320         0.000829      0.024589      0.004509
      9.02928      5.55164     10.04845         0.077126      0.034100     -0.033196
      9.75089      4.32795     10.05175         0.026578      0.050578      0.003729
     11.84670      5.59331     10.00046         0.041784     -0.031833      0.024016
     11.10232      6.81765      9.98059        -0.056388      0.015528      0.020568
      8.91080      8.00505      9.96057        -0.279487      0.056035      0.017354
      9.68624      6.79954      9.98755         0.061362     -0.172993      0.010317
     11.77725      8.06143      9.97403         0.044897     -0.013162      0.012475
     11.03367      9.27592      9.96949        -0.048717     -0.001227     -0.003877
      8.86102     10.47005      9.96831         0.010361     -0.057453      0.009585
      9.60051      9.25066      9.96118         0.038115      0.103622      0.008119
     11.74244     10.51338      9.98012         0.009137      0.013615      0.004242
      3.20585      5.71162     10.07166        -0.613957     -0.113606     -0.039392
      5.51636      4.35786      9.95702         0.434889     -0.057912      0.293419
      6.84946      6.71726      9.92497         0.393503     -0.298586      0.333947
      4.51924      8.03799     10.07040        -0.185964      0.567141     -0.036046
      5.03639      6.19769     10.09126        -0.399296      0.197917     -0.579655
      6.46569      5.35242     11.80417         0.149713     -0.083985      0.234447
    total drift:                                0.127156      0.305229      0.014688

  FREE ENERGIE OF THE ION-ELECTRON SYSTEM (eV)
  free  energy   TOTEN  =      -627.60638324 eV

  energy  without entropy=     -627.60637164  energy(sigma->0) =     -627.60637744

 stress matrix after NEB project (eV)
    -36.77585     -1.68644      0.12943
     -1.68641    -35.21176     -0.08740
      0.13122     -0.08754     -0.11026
  FORCES: max atom, RMS     0.731169    0.219586
  FORCE total and by dimension    1.700903    0.613957
  Stress total and by dimension   50.971370   36.775848
 writing wavefunctions
 vacuum level on the upper side and lower side of the slab         1.290         1.719

 total charge

[...]

 magnetization (x)

# of ion       s       p       d       tot
    1        0.000   0.000   0.000   0.000
    2        0.000  -0.001   0.000  -0.001
    3       -0.000  -0.007   0.000  -0.007
    4        0.000  -0.000   0.000  -0.000
    5       -0.000  -0.001   0.000  -0.001
    6       -0.000  -0.001   0.000  -0.001
    7       -0.000  -0.004   0.000  -0.004
    8        0.001   0.010   0.000   0.011
    9       -0.001  -0.011   0.000  -0.012
   10       -0.001  -0.010   0.000  -0.010
   11       -0.000  -0.004   0.000  -0.004
   12        0.000  -0.003   0.000  -0.003
   13        0.000   0.001   0.000   0.001
   14        0.000   0.001   0.000   0.001
   15       -0.001  -0.019   0.000  -0.020
   16        0.000   0.003   0.000   0.003
   17        0.000   0.002   0.000   0.002
   18       -0.000  -0.005   0.000  -0.006
   19       -0.001  -0.014   0.000  -0.015
   20       -0.001  -0.011   0.000  -0.012
   21       -0.000  -0.002   0.000  -0.002
   22        0.000  -0.000   0.000  -0.000
   23        0.000   0.003   0.000   0.003
   24       -0.001  -0.013   0.000  -0.014
   25       -0.002  -0.022   0.000  -0.023
   26        0.000  -0.002   0.000  -0.002
   27        0.000   0.000   0.000   0.000
   28       -0.000  -0.010   0.000  -0.011
   29        0.001   0.003   0.000   0.004
   30       -0.001  -0.014   0.000  -0.015
   31        0.000   0.003   0.000   0.003
   32        0.000  -0.001   0.000  -0.001
   33       -0.000  -0.007   0.000  -0.007
   34        0.000  -0.000   0.000  -0.000
   35        0.000   0.001   0.000   0.001
   36        0.000   0.000   0.000   0.000
   37       -0.000  -0.003   0.000  -0.003
   38       -0.000  -0.003   0.000  -0.003
   39       -0.000  -0.001   0.000  -0.001
   40        0.000   0.001   0.000   0.001
   41        0.000   0.000   0.000   0.000
   42       -0.000  -0.002   0.000  -0.002
   43       -0.000  -0.007   0.000  -0.008
   44       -0.001  -0.010   0.000  -0.011
   45        0.000   0.004   0.000   0.005
   46        0.000   0.003   0.000   0.003
   47        0.000   0.001   0.000   0.001
   48       -0.000  -0.004   0.000  -0.004
   49       -0.000  -0.003   0.000  -0.003
   50       -0.000  -0.007   0.000  -0.007
   51        0.000  -0.001   0.000  -0.001
   52        0.000   0.002   0.000   0.002
   53       -0.000  -0.004   0.000  -0.004
   54       -0.000  -0.001   0.000  -0.001
   55       -0.005  -0.052   0.000  -0.058
   56       -0.004  -0.019   0.000  -0.023
   57       -0.003  -0.010   0.000  -0.013
   58       -0.005  -0.054   0.000  -0.060
   59        0.010   0.009   1.818   1.837
   60       -0.046  -0.002   0.777   0.729
tot         -0.060  -0.301   2.595   2.234