 vasp.5.4.4.18Apr17-6-g9f103f2a35 (build Feb 25 2019 10:51:38) complex

 executed on             LinuxIFC date 2021.07.23  14:49:23

 INCAR:
 POTCAR:    PAW_PBE C 08Apr2002
 POTCAR:    PAW_PBE N 08Apr2002
 POTCAR:    PAW_PBE Fe 06Sep2000
 POTCAR:    PAW_PBE Sc_sv 07Sep2000

 POTCAR:    PAW_PBE C 08Apr2002
   VRHFIN =C: s2p2

   TITEL  = PAW_PBE C 08Apr2002
   POMASS =   12.011; ZVAL   =    4.000    mass and valenz
   ENMAX  =  400.000; ENMIN  =  300.000 eV

 POTCAR:    PAW_PBE N 08Apr2002
   VRHFIN =N: s2p3

   TITEL  = PAW_PBE N 08Apr2002
   POMASS =   14.001; ZVAL   =    5.000    mass and valenz
   ENMAX  =  400.000; ENMIN  =  300.000 eV

 POTCAR:    PAW_PBE Fe 06Sep2000
   VRHFIN =Fe:  d7 s1

   TITEL  = PAW_PBE Fe 06Sep2000
   POMASS =   55.847; ZVAL   =    8.000    mass and valenz
   ENMAX  =  267.882; ENMIN  =  200.911 eV

 POTCAR:    PAW_PBE Sc_sv 07Sep2000
   VRHFIN =Sc: 3p4s3d

   TITEL  = PAW_PBE Sc_sv 07Sep2000
   POMASS =   44.956; ZVAL   =   11.000    mass and valenz
   ENMAX  =  222.660; ENMIN  =  166.995 eV

  PAW_PBE C 08Apr2002                   :
  PAW_PBE N 08Apr2002                   :
  PAW_PBE Fe 06Sep2000                  :
  PAW_PBE Sc_sv 07Sep2000               :

 POSCAR:  C  N Fe Sc
  positions in cartesian coordinates
 exchange correlation table for  LEXCH =        8
   RHO(1)=    0.500       N(1)  =     2000
   RHO(2)=  100.500       N(2)  =     4000

 VTST: version 3.2, (02/03/18)

 CHAIN: initializing optimizer

 OPT: Using VASP Conjugate-Gradient optimizer
 CHAIN: Read ICHAIN            0

 POSCAR:  C  N Fe Sc
  positions in cartesian coordinates

 ion  position               nearest neighbor table
   1  0.222  0.998  0.500-   3 1.42  17 1.42   4 1.43
   2  0.054  0.098  0.500-  34 1.42   7 1.42   3 1.43
   3  0.111  0.998  0.500-   1 1.42  15 1.43   2 1.43
   4  0.277  0.097  0.500-   5 1.42  19 1.42   1 1.43
   5  0.220  0.195  0.500-   8 1.41   7 1.41   4 1.42
   6  0.054  0.298  0.499-  38 1.42  10 1.43   7 1.44
   7  0.108  0.197  0.500-   5 1.41   2 1.42   6 1.44
   8  0.274  0.293  0.500-  53 1.38   5 1.41  51 1.41  57 2.48
   9  0.062  0.498  0.498-  10 1.44  42 1.45  12 1.46
  10  0.113  0.395  0.499-  53 1.36   6 1.43   9 1.44
  11  0.060  0.698  0.498-  46 1.43  16 1.43  12 1.45
  12  0.120  0.598  0.498-  54 1.40  11 1.45   9 1.46
  13  0.279  0.701  0.499-  54 1.39  14 1.42  25 1.43
  14  0.224  0.800  0.500-  13 1.42  16 1.42  17 1.43
  15  0.056  0.899  0.500-  50 1.42  16 1.43   3 1.43
  16  0.112  0.799  0.499-  14 1.42  15 1.43  11 1.43
  17  0.278  0.899  0.500-  28 1.41   1 1.42  14 1.43
  18  0.556  0.000  0.500-  20 1.41  30 1.43  21 1.43
  19  0.389  0.101  0.501-   4 1.42  20 1.43  23 1.46
  20  0.444  0.001  0.501-  18 1.41  19 1.43  28 1.44
  21  0.610  0.100  0.502-  32 1.42  22 1.42  18 1.43
  22  0.556  0.200  0.505-  55 1.38  21 1.42  23 1.45
  23  0.443  0.203  0.502-  22 1.45  51 1.45  19 1.46
  24  0.556  0.604  0.495-  56 1.39  26 1.43  52 1.44  58 2.56
  25  0.391  0.700  0.499-  13 1.43  29 1.43  52 1.44
  26  0.612  0.703  0.496-  27 1.42  44 1.42  24 1.43
  27  0.556  0.802  0.498-  29 1.42  26 1.42  30 1.43
  28  0.390  0.901  0.500-  17 1.41  29 1.43  20 1.44
  29  0.445  0.801  0.499-  27 1.42  28 1.43  25 1.43
  30  0.611  0.901  0.499-  48 1.42  27 1.43  18 1.43
  31  0.889  0.999  0.500-  33 1.42  34 1.43  50 1.44
  32  0.722  0.100  0.501-  21 1.42  37 1.43  33 1.43
  33  0.777  1.000  0.500-  31 1.42  48 1.43  32 1.43
  34  0.942  0.099  0.500-   2 1.42  31 1.43  35 1.44
  35  0.887  0.200  0.500-  37 1.42  38 1.44  34 1.44
  36  0.717  0.299  0.504-  55 1.38  37 1.45  41 1.46
  37  0.775  0.200  0.501-  35 1.42  32 1.43  36 1.45
  38  0.942  0.300  0.500-   6 1.42  39 1.44  35 1.44
  39  0.887  0.400  0.500-  38 1.44  41 1.45  42 1.45
  40  0.720  0.503  0.497-  56 1.37  45 1.44  41 1.44
  41  0.773  0.401  0.501-  40 1.44  39 1.45  36 1.46
  42  0.947  0.499  0.498-  43 1.44   9 1.45  39 1.45
  43  0.892  0.599  0.497-  45 1.43  46 1.44  42 1.44
  44  0.724  0.701  0.496-  26 1.42  49 1.43  45 1.44
  45  0.779  0.601  0.496-  43 1.43  40 1.44  44 1.44
  46  0.948  0.698  0.498-  11 1.43  43 1.44  47 1.44
  47  0.891  0.799  0.498-  49 1.43  50 1.43  46 1.44
  48  0.723  0.900  0.498-  30 1.42  33 1.43  49 1.44
  49  0.779  0.800  0.497-  47 1.43  44 1.43  48 1.44
  50  0.945  0.899  0.499-  15 1.42  47 1.43  31 1.44
  51  0.384  0.303  0.502-   8 1.41  23 1.45  58 2.28  57 2.33
  52  0.443  0.597  0.497-  24 1.44  25 1.44  57 2.04  58 2.46
  53  0.220  0.388  0.499-  10 1.36   8 1.38  57 1.85
  54  0.230  0.602  0.497-  13 1.39  12 1.40  57 1.98
  55  0.609  0.296  0.511-  36 1.38  22 1.38  58 2.23
  56  0.613  0.509  0.494-  40 1.37  24 1.39  58 2.05
  57  0.332  0.481  0.493-  53 1.85  54 1.98  52 2.04  51 2.33  58 2.46   8 2.48
  58  0.499  0.425  0.544-  56 2.05  55 2.23  51 2.28  52 2.46  57 2.46  24 2.56

  LATTYP: Found a triclinic cell.
 ALAT       =    17.9069083105
 B/A-ratio  =     0.6989090346
 C/A-ratio  =     1.1147597147
 COS(alpha) =     0.0000261799
 COS(beta)  =     0.0001248898
 COS(gamma) =     0.7040688048

  Lattice vectors:

 A1 = ( -12.8075329377, -12.5149696480,   0.0000000000)
 A2 = (  -0.0909329377, -12.5149696480,   0.0000000000)
 A3 = (  -0.0029962476,  -0.0005008446,  19.9618997689)

Analysis of symmetry for initial positions (statically):
 Subroutine PRICEL returns:
 Original cell was already a primitive cell.

 Routine SETGRP: Setting up the symmetry group for a
 triclinic supercell.

 Subroutine GETGRP returns: Found  1 space group operations
 (whereof  1 operations were pure point group operations)
 out of a pool of  2 trial point group operations.

The static configuration has the point symmetry C_1 .

Analysis of symmetry for dynamics (positions and initial velocities):
 Subroutine PRICEL returns:
 Original cell was already a primitive cell.

[...]

The dynamic configuration has the point symmetry C_1 .

Analysis of structural, dynamic, and magnetic symmetry:
 Subroutine PRICEL returns:
 Original cell was already a primitive cell.

 Routine SETGRP: Setting up the symmetry group for a
 triclinic supercell.

 Subroutine GETGRP returns: Found  1 space group operations
 (whereof  1 operations were pure point group operations)
 out of a pool of  2 trial point group operations.

The magnetic configuration has the point symmetry C_1 .

 Subroutine INISYM returns: Found  1 space group operations
 (whereof  1 operations are pure point group operations),
 and found     1 'primitive' translations

 KPOINTS: KPOINTS created by Atomic Simulation Env

Automatic generation of k-mesh.
Space group operators:
 irot       det(A)        alpha          n_x          n_y          n_z        tau_x        tau_y        tau_z
    1     1.000000     0.000001     1.000000     0.000000     0.000000     0.000000     0.000000     0.000000

 Subroutine IBZKPT returns following result:

 Found      2 irreducible k-points:

 Following reciprocal coordinates:
            Coordinates               Weight
  0.250000  0.250000 -0.000000      2.000000
 -0.250000  0.250000  0.000000      2.000000

 Following cartesian coordinates:
            Coordinates               Weight
  0.019659  0.019833  0.000003      2.000000
 -0.019659  0.020119 -0.000002      2.000000

 Subroutine IBZKPT_HF returns following result:

 Found      4 k-points in 1st BZ
 the following      4 k-points will be used (e.g. in the exchange kernel)
 Following reciprocal coordinates:   # in IRBZ
  0.250000  0.250000 -0.000000    0.25000000   1 t-inv F
 -0.250000  0.250000  0.000000    0.25000000   2 t-inv F
 -0.250000 -0.250000  0.000000    0.25000000   1 t-inv T
  0.250000 -0.250000 -0.000000    0.25000000   2 t-inv T

 SYSTEM =  unknown system
 POSCAR =   C  N Fe Sc

 Startparameter for this run:
   NWRITE =      2    write-flag & timer
   PREC   = accura    normal or accurate (medium, high low for compatibility)
   ISTART =      1    job   : 0-new  1-cont  2-samecut
   ICHARG =      0    charge: 1-file 2-atom 10-const
   ISPIN  =      2    spin polarized calculation?
   LNONCOLLINEAR =      F non collinear calculations
   LSORBIT =      F    spin-orbit coupling
   INIWAV =      1    electr: 0-lowe 1-rand  2-diag
   LASPH  =      T    aspherical Exc in radial PAW
   METAGGA=      F    non-selfconsistent MetaGGA calc.

 Electronic Relaxation 1
   ENCUT  =  500.0 eV  36.75 Ry    6.06 a.u.  23.19 22.82 36.40*2*pi/ulx,y,z
   ENINI  =  500.0     initial cutoff
   ENAUG  =  644.9 eV  augmentation charge cutoff
   NELM   =    250;   NELMIN=  2; NELMDL=  0     # of ELM steps
   EDIFF  = 0.1E-03   stopping-criterion for ELM
   LREAL  =      F    real-space projection
   NLSPLINE    = F    spline interpolate recip. space projectors
   LCOMPAT=      F    compatible to vasp.4.4
   GGA_COMPAT  = T    GGA compatible to vasp.4.4-vasp.4.6
   LMAXPAW     = -100 max onsite density
   LMAXMIX     =    2 max onsite mixed and CHGCAR
   VOSKOWN=      0    Vosko Wilk Nusair interpolation
   ROPT   =    0.00000   0.00000   0.00000   0.00000
 Ionic relaxation
   EDIFFG = -.3E-01   stopping-criterion for IOM
   NSW    =      0    number of steps for IOM
   NBLOCK =      1;   KBLOCK =      1    inner block; outer block
   IBRION =     -1    ionic relax: 0-MD 1-quasi-New 2-CG
   NFREE  =      1    steps in history (QN), initial steepest desc. (CG)
   ISIF   =      2    stress and relaxation
   IWAVPR =     10    prediction:  0-non 1-charg 2-wave 3-comb
   ISYM   =      3    0-nonsym 1-usesym 2-fastsym
   LCORR  =      T    Harris-Foulkes like correction to forces

   POTIM  = 0.5000    time-step for ionic-motion
   TEIN   =    0.0    initial temperature
   TEBEG  =    0.0;   TEEND  =   0.0 temperature during run
   SMASS  =  -3.00    Nose mass-parameter (am)
   estimated Nose-frequenzy (Omega)   =  0.10E-29 period in steps =****** mass=  -0.370E-26a.u.
   SCALEE = 1.0000    scale energy and forces
   NPACO  =    256;   APACO  = 16.0  distance and # of slots for P.C.
   PSTRESS=    0.0 pullay stress

  Mass of Ions in am
   POMASS =  12.01 14.00 55.85 44.96
  Ionic Valenz
   ZVAL   =   4.00  5.00  8.00 11.00
  Atomic Wigner-Seitz radii
  virtual crystal weights
   VCA    =   1.00  1.00  1.00  1.00
   NELECT =     247.0000    total number of electrons
   NUPDOWN=      -1.0000    fix difference up-down

 DOS related values:
   EMIN   =  10.00;   EMAX   =-10.00  energy-range for DOS
   EFERMI =   0.00
   ISMEAR =     0;   SIGMA  =   0.10  broadening in eV -4-tet -1-fermi 0-gaus

 Electronic relaxation 2 (details)
   IALGO  =     53    algorithm
   LDIAG  =      T    sub-space diagonalisation (order eigenvalues)
   LSUBROT=      F    optimize rotation matrix (better conditioning)
   TURBO    =      0    0=normal 1=particle mesh
   IRESTART =      0    0=no restart 2=restart with 2 vectors
   NREBOOT  =      0    no. of reboots
   NMIN     =      0    reboot dimension
   EREF     =   0.00    reference energy to select bands
   IMIX   =      4    mixing-type and parameters
     AMIX     =   0.40;   BMIX     =  1.00
     AMIX_MAG =   1.60;   BMIX_MAG =  1.00
     AMIN     =   0.10
     WC   =   100.;   INIMIX=   1;  MIXPRE=   1;  MAXMIX= -45

 Intra band minimization:
[...]
   33        0.866   1.776   0.000   2.642
   34        0.866   1.767   0.000   2.632
   35        0.863   1.762   0.000   2.624
   36        0.852   1.698   0.000   2.550
   37        0.864   1.765   0.000   2.629
   38        0.863   1.763   0.000   2.626
   39        0.854   1.732   0.000   2.586
   40        0.856   1.725   0.000   2.581
   41        0.848   1.745   0.000   2.593
   42        0.855   1.729   0.000   2.584
   43        0.862   1.760   0.000   2.622
   44        0.866   1.763   0.000   2.630
   45        0.863   1.765   0.000   2.627
   46        0.861   1.752   0.000   2.613
   47        0.863   1.759   0.000   2.622
   48        0.866   1.767   0.000   2.633
   49        0.864   1.769   0.000   2.633
   50        0.866   1.766   0.000   2.632
   51        0.851   1.686   0.000   2.537
   52        0.853   1.670   0.000   2.523
   53        1.235   2.723   0.000   3.958
   54        1.226   2.637   0.000   3.863
   55        1.234   2.664   0.000   3.898
   56        1.239   2.703   0.000   3.942
   57        0.447   0.547   6.276   7.270
   58        2.222   6.175   1.072   9.468
tot         52.486 108.766   7.348 168.599

 magnetization (x)

[...]

  FORCE on cell =-STRESS in cart. coord.  units (eV):
  Direction    XX          YY          ZZ          XY          YZ          ZX
  Alpha Z   106.95251   106.95251   106.95251
  Ewald   48426.45587 48199.89771-56969.06233     4.92297   -28.86193   -15.54131
  Hartree 47944.45261 47879.08446-47202.60735     5.04193   -32.59345    -4.88167
  E(xc)    -721.12716  -721.34611  -735.41976    -0.07115     0.21836    -0.24518
  Local  -98980.20216-98719.84880101073.08479   -14.23975    63.87992    19.23335
  n-local  -174.10555  -176.70059  -171.58204     1.54929    -1.56184    -0.37389
  augment    42.49405    42.91516    45.44348    -0.40943    -0.75528     0.50604
  Kinetic  3672.64760  3672.23961  4172.17220     2.65837    -1.39793     2.86213
  Fock     -344.63021  -344.30401  -319.85209     0.85527     0.57502    -0.41099
  Total     -27.06244   -61.11005    -0.87057     0.30749    -0.49714     1.14847
  in kB     -13.64818   -30.81914    -0.43905     0.15508    -0.25072     0.57920

 VOLUME and BASIS-vectors are now :
  energy-cutoff  :      500.00
  volume of cell :     3176.89
      direct lattice vectors                 reciprocal lattice vectors
    12.716600000  0.000000000  0.000000000     0.078637372 -0.000571374  0.000011789
     0.090932938 12.514969648  0.000000000     0.000000000  0.079904309  0.000002005
    -0.002996248 -0.000500845 19.961899769     0.000000000  0.000000000  0.050095432

  length of vectors
    12.716600000 12.515300000 19.961900000     0.078639448  0.079904309  0.050095432

 FORCES acting on ions:
    Electron-Ion                     Ewald-Force                    Non-Local-Force
   0.120E+01 0.138E+01 -.109E+01   -.116E+01 -.154E+01 0.105E+01   -.878E-01 0.192E+00 0.260E-01
   0.302E+01 0.693E+01 0.166E+01   -.308E+01 -.713E+01 -.170E+01   0.111E+00 0.150E+00 0.209E-01
   0.765E+01 0.182E+01 -.627E+00   -.754E+01 -.176E+01 0.587E+00   -.612E-01 0.614E-02 0.218E-01
   0.131E+01 0.117E+02 0.391E+01   -.979E+00 -.120E+02 -.398E+01   -.394E+00 0.275E+00 0.635E-01
   0.546E+01 0.199E+02 0.934E+01   -.556E+01 -.205E+02 -.942E+01   0.346E-01 0.471E+00 0.103E+00
   0.149E+02 0.410E+01 0.258E+01   -.154E+02 -.404E+01 -.263E+01   0.489E+00 0.802E-01 0.282E-01
   0.152E+02 0.711E+01 0.458E+01   -.154E+02 -.729E+01 -.462E+01   0.329E+00 0.160E+00 0.386E-01
   -.774E+01 0.487E+02 0.868E+01   0.106E+02 -.523E+02 -.827E+01   -.280E+01 0.370E+01 -.410E+00
   0.134E+02 -.110E+02 0.103E+02   -.135E+02 0.110E+02 -.104E+02   0.138E+00 -.137E-03 0.119E+00
   0.513E+02 -.104E+02 0.584E+01   -.554E+02 0.109E+02 -.591E+01   0.397E+01 -.547E+00 0.508E-01
   0.102E+02 0.788E+00 0.310E+01   -.105E+02 -.785E+00 -.312E+01   0.276E+00 -.649E-01 0.151E-01
   0.399E+02 0.519E+01 0.850E+01   -.431E+02 -.545E+01 -.854E+01   0.329E+01 0.327E+00 0.488E-01
   -.395E+01 -.342E+02 0.244E+01   0.641E+01 0.372E+02 -.251E+01   -.233E+01 -.279E+01 0.648E-01
   0.282E+01 -.148E+02 -.289E+01   -.258E+01 0.152E+02 0.293E+01   -.135E+00 -.340E+00 -.365E-01
   0.220E+00 -.676E+00 0.922E-01   -.250E+00 0.729E+00 -.132E+00   0.412E-01 -.157E+00 0.336E-01
   0.136E+02 -.564E+01 0.257E+00   -.138E+02 0.586E+01 -.339E+00   0.131E+00 -.144E+00 0.687E-01
   0.564E+01 -.178E+01 -.290E+01   -.529E+01 0.184E+01 0.292E+01   -.254E+00 -.881E-01 -.160E-01
   -.484E+01 0.290E+01 0.509E+01   0.450E+01 -.307E+01 -.519E+01   0.240E+00 0.244E+00 0.931E-01
   -.593E+01 0.382E+01 0.232E+01   0.639E+01 -.363E+01 -.240E+01   -.368E+00 -.977E-01 0.663E-01
   0.511E+01 0.250E+01 0.356E+00   -.506E+01 -.253E+01 -.328E+00   0.496E-01 0.334E-01 -.384E-01
   0.507E+00 0.150E+02 0.383E+01   -.866E+00 -.154E+02 -.397E+01   0.266E+00 0.467E+00 0.155E+00
   0.156E+02 0.364E+02 -.424E+00   -.178E+02 -.396E+02 -.229E+00   0.201E+01 0.297E+01 0.607E+00
   0.576E+01 0.140E+02 0.152E+02   -.620E+01 -.136E+02 -.163E+02   0.689E+00 -.642E+00 0.108E+01
   0.899E+01 -.516E+02 0.572E+02   -.122E+02 0.556E+02 -.584E+02   0.313E+01 -.398E+01 0.119E+01
   -.862E+01 -.166E+02 0.536E+01   0.927E+01 0.156E+02 -.520E+01   -.881E+00 0.108E+01 -.126E+00
   -.629E+01 -.189E+02 0.203E+02   0.622E+01 0.193E+02 -.202E+02   0.750E-01 -.506E+00 -.115E+00
   -.423E+01 -.113E+02 0.983E+01   0.392E+01 0.115E+02 -.986E+01   0.350E+00 -.186E+00 0.260E-01
   -.508E+01 -.531E+01 0.469E+00   0.504E+01 0.528E+01 -.535E+00   -.818E-01 0.243E-01 0.612E-01
   0.318E+01 -.871E+01 0.463E+01   -.367E+01 0.838E+01 -.462E+01   0.390E+00 0.239E+00 -.830E-02
   -.931E+00 -.280E+01 0.763E+01   0.846E+00 0.282E+01 -.768E+01   0.112E+00 -.105E+00 0.538E-01
   -.585E+01 0.376E+01 0.232E+01   0.583E+01 -.375E+01 -.236E+01   0.452E-01 0.275E-01 0.213E-01
   -.120E+02 0.868E+01 -.226E+00   0.121E+02 -.897E+01 0.338E+00   -.951E-01 0.179E+00 -.112E+00
   0.384E+00 0.188E+01 0.247E+01   -.355E+00 -.201E+01 -.253E+01   -.451E-01 0.208E+00 0.464E-01
   0.534E+01 0.729E+00 0.333E+01   -.539E+01 -.709E+00 -.338E+01   0.340E-01 -.208E-02 0.390E-01
   -.573E+01 0.147E+01 0.656E+01   0.604E+01 -.132E+01 -.670E+01   -.274E+00 -.126E+00 0.141E+00
   -.458E+02 -.518E+01 -.158E+01   0.493E+02 0.544E+01 0.919E+00   -.343E+01 -.291E+00 0.627E+00
   -.104E+02 0.289E+01 0.510E+01   0.108E+02 -.292E+01 -.518E+01   -.417E+00 0.759E-01 0.109E+00
   0.736E+01 -.481E-01 0.205E+01   -.763E+01 0.369E+00 -.204E+01   0.196E+00 -.256E+00 -.341E-02
   -.203E+01 -.388E+01 0.242E+01   0.207E+01 0.401E+01 -.249E+01   0.669E-01 -.145E+00 0.549E-01
   -.529E+02 0.844E+01 0.307E+02   0.572E+02 -.877E+01 -.307E+02   -.390E+01 0.393E+00 0.111E+00
   -.163E+02 0.727E+01 0.243E+01   0.165E+02 -.717E+01 -.249E+01   -.258E+00 -.440E-01 0.213E-01
   -.103E+01 0.162E+01 0.778E+01   0.109E+01 -.170E+01 -.782E+01   -.174E+00 0.976E-01 0.386E-01
   -.785E+01 -.111E+01 0.100E+02   0.817E+01 0.855E+00 -.100E+02   -.255E+00 0.191E+00 0.849E-02
   -.151E+02 -.910E+01 0.201E+02   0.153E+02 0.930E+01 -.202E+02   -.132E+00 -.158E+00 0.118E+00
   -.184E+02 -.633E+01 0.221E+02   0.189E+02 0.632E+01 -.221E+02   -.549E+00 -.116E+00 0.749E-01
   0.195E+01 -.201E+01 0.595E+01   -.210E+01 0.183E+01 -.600E+01   0.123E+00 0.140E+00 0.452E-01
   -.509E+01 0.113E+01 0.563E+01   0.515E+01 -.120E+01 -.565E+01   -.394E-01 0.697E-01 0.140E-01
   -.848E+01 -.152E-01 0.691E+01   0.838E+01 -.829E-01 -.695E+01   0.699E-01 0.397E-01 0.391E-01
   -.450E+01 -.559E+01 0.103E+02   0.454E+01 0.570E+01 -.104E+02   -.102E+00 -.121E+00 0.313E-01
   0.557E+01 -.150E+01 0.252E+01   -.553E+01 0.145E+01 -.256E+01   -.548E-01 0.358E-01 0.404E-01
   -.295E+02 -.560E+01 0.320E+02   0.329E+02 0.113E+02 -.317E+02   -.348E+01 -.549E+01 -.598E-01
   0.216E+02 -.559E+00 0.423E+02   -.263E+02 -.538E+01 -.440E+02   0.511E+01 0.572E+01 0.179E+01
   0.283E+02 -.276E+02 0.543E+01   -.196E+02 0.427E+02 -.444E+01   -.826E+01 -.146E+02 -.838E+00
   0.951E+01 0.252E+02 0.200E+02   0.889E+00 -.413E+02 -.214E+02   -.101E+02 0.152E+02 0.129E+01
   -.934E-01 -.228E+02 -.380E+02   -.116E+02 0.419E+02 0.399E+02   0.108E+02 -.177E+02 -.171E+01
   -.244E+02 0.333E+02 0.120E+03   0.139E+02 -.516E+02 -.125E+03   0.965E+01 0.172E+02 0.475E+01
   -.142E+02 -.192E+02 0.158E+03   0.113E+02 0.252E+02 -.157E+03   0.199E+01 -.524E+01 -.174E+01
   0.164E+02 0.281E+02 -.693E+03   -.156E+02 -.303E+02 0.681E+03   0.216E+00 0.160E+01 0.102E+02
   -.607E+01 0.242E+01 -.202E+02   -.817E-13 0.242E-12 0.114E-12   0.548E+01 -.230E+01 0.185E+02

 POSITION                                       TOTAL-FORCE (eV/Angst)
      2.91675     12.49297      9.98842        -0.048021      0.047200     -0.017699
      0.69420      1.22547      9.97693         0.048732     -0.041777     -0.015089
      1.49814     12.49571      9.98182         0.051748      0.067736     -0.017586
      3.53548      1.21946      9.98621        -0.084031     -0.001907     -0.003636
      2.80819      2.43510      9.97145        -0.067810     -0.093229      0.024347
      0.71376      3.72689      9.97096         0.035872      0.147668     -0.024213
      1.39403      2.46183      9.97141         0.141337     -0.009679      0.003308
      3.50493      3.66241      9.98414        -0.106080      0.366217     -0.026159
      0.82788      6.23125      9.93612        -0.000751     -0.040296      0.041879
      1.46966      4.94581      9.95692         0.137164     -0.065498     -0.017042
      0.82758      8.73088      9.94940         0.001826     -0.059383     -0.001832
      1.57952      7.48775      9.93345         0.243963      0.089894      0.007343
      3.60999      8.77473      9.95619         0.019267     -0.009595     -0.003718
      2.91599     10.00893      9.97799         0.088242     -0.036884     -0.004462
      0.79724     11.24568      9.97235         0.004148     -0.112047     -0.005098
      1.49971      9.99787      9.96757         0.018390      0.067267     -0.009257
      3.62107     11.25668      9.98839         0.088185     -0.031226     -0.004025
      7.06400      0.00277      9.98397        -0.097123      0.081377      0.005531
      4.95499      1.26280     10.00384         0.069419      0.074845     -0.009303
      5.64957      0.00844      9.99421         0.116172      0.011853     -0.012710
      7.76728      1.24801     10.01687        -0.072645      0.051838      0.030161
      7.09000      2.49819     10.08178        -0.122593     -0.064469     -0.013285
      5.64486      2.54568     10.02235         0.297903     -0.277408      0.028811
      7.12669      7.56450      9.87201         0.090625     -0.188115      0.066023
      5.03541      8.76185      9.95478        -0.290219      0.212041      0.030210
      7.84697      8.80050      9.90332         0.013226     -0.040712     -0.015637
      7.14612     10.03496      9.93732         0.056686      0.037621     -0.000291
      5.03396     11.27109      9.98151        -0.138946     -0.009771     -0.001082
      5.72762     10.01861      9.95894        -0.069394     -0.073629      0.002138
      7.85604     11.27393      9.95358         0.039028     -0.083004      0.003169
     11.39005     12.50337      9.97151         0.013053      0.034568     -0.013679
      9.18674      1.24863     10.00776         0.000736     -0.101738     -0.006175
      9.97451     12.51066      9.97624        -0.008132      0.084803     -0.006800
     11.99179      1.23938      9.97490        -0.000062      0.014750     -0.006611
     11.29945      2.50065      9.97897         0.011453      0.024532      0.016412
      9.14277      3.74680     10.06676        -0.082222     -0.061020      0.003330
      9.87809      2.50395     10.00838        -0.063790      0.057301      0.029568
     12.00933      3.75092      9.97844        -0.056161      0.051774      0.003958
     11.31832      5.00994      9.97546         0.113329     -0.029126     -0.015612
      9.20465      6.29716      9.91373         0.123712      0.094885      0.041375
      9.86661      5.01765      9.99923        -0.053767      0.060681     -0.041137
     12.09235      6.23949      9.94301        -0.126936      0.031563      0.002644
     11.39203      7.49416      9.92651         0.053481     -0.052977     -0.005150
      9.26916      8.77457      9.89873        -0.021782      0.039970      0.016207
      9.96545      7.51596      9.90016        -0.087473     -0.138194      0.021009
     12.11219      8.73660      9.93821        -0.019727     -0.034315      0.004189
     11.40673      9.99493      9.94200         0.013820      0.002655     -0.002995
      9.27412     11.26232      9.95003        -0.030079     -0.053800      0.009286
      9.98099     10.01126      9.92686        -0.056615     -0.025158      0.006571
     12.09716     11.24859      9.96188        -0.006801     -0.012865     -0.002515
      4.91204      3.79362     10.01538        -0.254418     -0.020908      0.224125
      5.69040      7.47744      9.91354         0.624035      0.079463      0.173147
      2.82869      4.86181      9.96609        -0.338807     -0.783572      0.080625
      2.97845      7.53837      9.91861        -0.571822      0.445724     -0.022572
      7.77017      3.69801     10.19588         0.107048     -0.110724      0.070618
      7.83749      6.37022      9.86577        -0.086394      0.360857      0.344150
      4.25896      6.02565      9.83873        -0.848421      0.490233     -0.394663
      6.38526      5.31824     10.85867         1.188417     -0.466291     -0.570096
    total drift:                                0.004846     -0.005027     -0.009659

  FREE ENERGIE OF THE ION-ELECTRON SYSTEM (eV)
  free  energy   TOTEN  =      -607.66686599 eV

  energy  without entropy=     -607.66608968  energy(sigma->0) =     -607.66647784

 stress matrix after NEB project (eV)
    -27.06244      0.30802      1.14847
      0.30749    -61.11005     -0.50036
      1.14732     -0.49714     -0.87057
  FORCES: max atom, RMS     1.398132    0.325177
  FORCE total and by dimension    2.476473    1.188417
  Stress total and by dimension   66.864746   61.110052
 writing wavefunctions

 total charge

[...]

 magnetization (x)

# of ion       s       p       d       tot
    1       -0.000  -0.003   0.000  -0.003
    2        0.000   0.002   0.000   0.002
    3       -0.000  -0.006   0.000  -0.006
    4       -0.000  -0.002   0.000  -0.002
    5       -0.000  -0.004   0.000  -0.005
    6       -0.000  -0.008   0.000  -0.008
    7       -0.000  -0.002   0.000  -0.002
    8        0.001   0.002   0.000   0.003
    9        0.000   0.004   0.000   0.004
   10       -0.001  -0.009   0.000  -0.010
   11       -0.000  -0.006   0.000  -0.007
   12       -0.000  -0.011   0.000  -0.011
   13       -0.001  -0.019   0.000  -0.019
   14        0.000   0.004   0.000   0.004
   15       -0.000  -0.004   0.000  -0.004
   16       -0.001  -0.011   0.000  -0.011
   17       -0.000  -0.006   0.000  -0.006
   18       -0.000  -0.003   0.000  -0.003
   19        0.000   0.004   0.000   0.004
   20       -0.000  -0.007   0.000  -0.008
   21        0.000   0.001   0.000   0.001
   22       -0.000  -0.009   0.000  -0.010
   23       -0.001  -0.013   0.000  -0.014
   24        0.001   0.007   0.000   0.008
   25       -0.001  -0.013   0.000  -0.014
   26       -0.001  -0.010   0.000  -0.011
   27       -0.000  -0.002   0.000  -0.002
   28       -0.000  -0.005   0.000  -0.005
   29        0.000   0.001   0.000   0.001
   30       -0.000  -0.006   0.000  -0.006
   31       -0.000  -0.004   0.000  -0.004
   32       -0.000  -0.007   0.000  -0.007
   33       -0.000  -0.007   0.000  -0.007
   34       -0.000  -0.005   0.000  -0.005
   35        0.000  -0.000   0.000  -0.000
   36       -0.000  -0.010   0.000  -0.011
   37       -0.000  -0.005   0.000  -0.005
   38       -0.001  -0.011   0.000  -0.012
   39        0.000   0.003   0.000   0.004
   40       -0.000  -0.004   0.000  -0.004
   41        0.000  -0.001   0.000  -0.001
   42        0.000   0.000   0.000   0.000
   43       -0.000  -0.008   0.000  -0.008
   44        0.000   0.004   0.000   0.005
   45       -0.000  -0.009   0.000  -0.009
   46       -0.000  -0.004   0.000  -0.004
   47        0.000  -0.001   0.000  -0.001
   48        0.000   0.001   0.000   0.001
   49       -0.000  -0.002   0.000  -0.002
   50       -0.000  -0.006   0.000  -0.007
   51       -0.004  -0.022   0.000  -0.026
   52       -0.005  -0.041   0.000  -0.046
   53       -0.005  -0.022   0.000  -0.027
   54       -0.007  -0.067   0.000  -0.075
   55       -0.002  -0.033   0.000  -0.035
   56        0.000   0.008   0.000   0.008
   57        0.018   0.000   1.852   1.870
   58       -0.008  -0.011  -0.110  -0.128
tot         -0.021  -0.400   1.742   1.322