 vasp.5.4.4.18Apr17-6-g9f103f2a35 (build Feb 25 2019 10:51:38) complex

 executed on             LinuxIFC date 2022.02.08  14:49:37

 INCAR:
 POTCAR:    PAW_PBE C 08Apr2002
 POTCAR:    PAW_PBE N 08Apr2002
 POTCAR:    PAW_PBE Cu 22Jun2005
 POTCAR:    PAW_PBE Fe 06Sep2000

 POTCAR:    PAW_PBE C 08Apr2002
   VRHFIN =C: s2p2

   TITEL  = PAW_PBE C 08Apr2002
   POMASS =   12.011; ZVAL   =    4.000    mass and valenz
   ENMAX  =  400.000; ENMIN  =  300.000 eV

 POTCAR:    PAW_PBE N 08Apr2002
   VRHFIN =N: s2p3

   TITEL  = PAW_PBE N 08Apr2002
   POMASS =   14.001; ZVAL   =    5.000    mass and valenz
   ENMAX  =  400.000; ENMIN  =  300.000 eV

 POTCAR:    PAW_PBE Cu 22Jun2005
   VRHFIN =Cu: d10 p1

   TITEL  = PAW_PBE Cu 22Jun2005
   POMASS =   63.546; ZVAL   =   11.000    mass and valenz
   ENMAX  =  295.446; ENMIN  =  221.585 eV

 POTCAR:    PAW_PBE Fe 06Sep2000
   VRHFIN =Fe:  d7 s1

   TITEL  = PAW_PBE Fe 06Sep2000
   POMASS =   55.847; ZVAL   =    8.000    mass and valenz
   ENMAX  =  267.882; ENMIN  =  200.911 eV

  PAW_PBE C 08Apr2002                   :
  PAW_PBE N 08Apr2002                   :
  PAW_PBE Cu 22Jun2005                  :
  PAW_PBE Fe 06Sep2000                  :

 POSCAR:  C  N Cu Fe
  positions in cartesian coordinates
 exchange correlation table for  LEXCH =        8
   RHO(1)=    0.500       N(1)  =     2000
   RHO(2)=  100.500       N(2)  =     4000

 VTST: version 3.2, (02/03/18)

 CHAIN: initializing optimizer

 OPT: Using VASP Conjugate-Gradient optimizer
 CHAIN: Read ICHAIN            0

 POSCAR:  C  N Cu Fe
  positions in cartesian coordinates

 ion  position               nearest neighbor table
   1  0.222  0.998  0.500-  17 1.43   3 1.43   4 1.43
   2  0.055  0.099  0.500-  34 1.43   7 1.43   3 1.44
   3  0.111  0.999  0.500-   1 1.43  15 1.43   2 1.44
   4  0.278  0.097  0.500-   5 1.42  19 1.42   1 1.43
   5  0.222  0.196  0.500-   4 1.42   7 1.43   8 1.44
   6  0.054  0.298  0.500-   7 1.43  38 1.43  10 1.44
   7  0.110  0.198  0.500-   5 1.43   6 1.43   2 1.43
   8  0.280  0.295  0.500-  51 1.42   5 1.44  53 1.44
   9  0.055  0.498  0.500-  42 1.42  10 1.44  12 1.45
  10  0.112  0.398  0.500-  51 1.39   6 1.44   9 1.44
  11  0.057  0.699  0.500-  46 1.43  16 1.43  12 1.45
  12  0.114  0.598  0.500-  52 1.41  11 1.45   9 1.45
  13  0.279  0.699  0.500-  52 1.41  14 1.43  25 1.46
  14  0.223  0.799  0.500-  16 1.42  17 1.43  13 1.43
  15  0.056  0.899  0.500-  50 1.42   3 1.43  16 1.44
  16  0.112  0.799  0.500-  14 1.42  11 1.43  15 1.44
  17  0.278  0.898  0.500-   1 1.43  28 1.43  14 1.43
  18  0.556  0.999  0.500-  30 1.42  20 1.43  21 1.43
  19  0.389  0.098  0.500-   4 1.42  20 1.43  23 1.44
  20  0.444  0.998  0.500-  18 1.43  19 1.43  28 1.43
  21  0.611  0.099  0.500-  22 1.41  32 1.42  18 1.43
  22  0.556  0.197  0.500-  55 1.38  21 1.41  23 1.44
  23  0.444  0.198  0.500-  53 1.42  19 1.44  22 1.44
  24  0.560  0.606  0.500-  56 1.38  26 1.42  54 1.42  58 2.48
  25  0.393  0.697  0.500-  54 1.43  29 1.44  13 1.46
  26  0.614  0.704  0.500-  27 1.41  24 1.42  44 1.42
  27  0.557  0.802  0.500-  26 1.41  29 1.42  30 1.43
  28  0.390  0.899  0.500-  17 1.43  20 1.43  29 1.43
  29  0.446  0.799  0.500-  27 1.42  28 1.43  25 1.44
  30  0.612  0.901  0.500-  18 1.42  48 1.43  27 1.43
  31  0.889  1.000  0.500-  33 1.42  34 1.43  50 1.43
  32  0.722  0.100  0.500-  21 1.42  33 1.43  37 1.43
  33  0.778  0.000  0.500-  31 1.42  48 1.43  32 1.43
  34  0.943  0.100  0.500-   2 1.43  31 1.43  35 1.44
  35  0.887  0.200  0.500-  38 1.43  37 1.44  34 1.44
  36  0.714  0.300  0.500-  55 1.41  37 1.45  41 1.46
  37  0.774  0.201  0.500-  32 1.43  35 1.44  36 1.45
  38  0.942  0.300  0.500-  35 1.43   6 1.43  39 1.44
  39  0.885  0.399  0.500-  38 1.44  41 1.44  42 1.46
  40  0.720  0.504  0.500-  56 1.35  45 1.44  41 1.45
  41  0.772  0.400  0.500-  39 1.44  40 1.45  36 1.46
  42  0.944  0.499  0.500-   9 1.42  43 1.44  39 1.46
  43  0.890  0.600  0.500-  45 1.42  46 1.43  42 1.44
  44  0.725  0.702  0.500-  26 1.42  49 1.42  45 1.43
  45  0.779  0.602  0.500-  43 1.42  44 1.43  40 1.44
  46  0.946  0.699  0.500-  11 1.43  43 1.43  47 1.43
  47  0.891  0.800  0.500-  49 1.42  50 1.43  46 1.43
  48  0.723  0.901  0.500-  30 1.43  33 1.43  49 1.43
  49  0.780  0.801  0.500-  47 1.42  44 1.42  48 1.43
  50  0.945  0.900  0.500-  15 1.42  47 1.43  31 1.43
  51  0.221  0.392  0.500-  10 1.39   8 1.42  57 1.86
  52  0.224  0.601  0.500-  13 1.41  12 1.41  57 1.93
  53  0.392  0.299  0.500-  23 1.42   8 1.44  58 2.03
  54  0.449  0.598  0.500-  24 1.42  25 1.43  57 2.04  58 2.35
  55  0.605  0.296  0.500-  22 1.38  36 1.41  58 1.99
  56  0.615  0.510  0.500-  40 1.35  24 1.38  58 1.86
  57  0.329  0.491  0.500-  51 1.86  52 1.93  54 2.04  58 2.38
  58  0.502  0.416  0.500-  56 1.86  55 1.99  53 2.03  54 2.35  57 2.38  24 2.48

  LATTYP: Found a triclinic cell.
 ALAT       =    17.7956132177
 B/A-ratio  =     0.6999814981
 C/A-ratio  =     1.1191297404
 COS(alpha) =     0.0001012291
 COS(beta)  =     0.0004790538
 COS(gamma) =     0.6943836264

  Lattice vectors:

 A1 = (  12.7093019270, -12.4562231163,   0.0000000000)
 A2 = (  -0.0968980730, -12.4562231163,   0.0000000000)
 A3 = (   0.0112967652,  -0.0021039777, -19.9155966849)

Analysis of symmetry for initial positions (statically):
 Subroutine PRICEL returns:
 Original cell was already a primitive cell.

 Routine SETGRP: Setting up the symmetry group for a
 triclinic supercell.

 Subroutine GETGRP returns: Found  1 space group operations
 (whereof  1 operations were pure point group operations)
 out of a pool of  2 trial point group operations.

The static configuration has the point symmetry C_1 .

Analysis of symmetry for dynamics (positions and initial velocities):
 Subroutine PRICEL returns:
 Original cell was already a primitive cell.

[...]

The dynamic configuration has the point symmetry C_1 .

Analysis of structural, dynamic, and magnetic symmetry:
 Subroutine PRICEL returns:
 Original cell was already a primitive cell.

 Routine SETGRP: Setting up the symmetry group for a
 triclinic supercell.

 Subroutine GETGRP returns: Found  1 space group operations
 (whereof  1 operations were pure point group operations)
 out of a pool of  2 trial point group operations.

The magnetic configuration has the point symmetry C_1 .

 Subroutine INISYM returns: Found  1 space group operations
 (whereof  1 operations are pure point group operations),
 and found     1 'primitive' translations

 KPOINTS: KPOINTS created by Atomic Simulation Env

Automatic generation of k-mesh.
Space group operators:
 irot       det(A)        alpha          n_x          n_y          n_z        tau_x        tau_y        tau_z
    1     1.000000     0.000000     1.000000     0.000000     0.000000     0.000000     0.000000     0.000000

 Subroutine IBZKPT returns following result:

 Found      1 irreducible k-points:

 Following reciprocal coordinates:
            Coordinates               Weight
  0.000000  0.000000  0.000000      1.000000

 Following cartesian coordinates:
            Coordinates               Weight
  0.000000  0.000000  0.000000      1.000000

 Subroutine IBZKPT_HF returns following result:

 Found      1 k-points in 1st BZ
 the following      1 k-points will be used (e.g. in the exchange kernel)
 Following reciprocal coordinates:   # in IRBZ
  0.000000  0.000000  0.000000    1.00000000   1 t-inv F

 SYSTEM =  unknown system
 POSCAR =   C  N Cu Fe

 Startparameter for this run:
   NWRITE =      2    write-flag & timer
   PREC   = accura    normal or accurate (medium, high low for compatibility)
   ISTART =      1    job   : 0-new  1-cont  2-samecut
   ICHARG =      0    charge: 1-file 2-atom 10-const
   ISPIN  =      2    spin polarized calculation?
   LNONCOLLINEAR =      F non collinear calculations
   LSORBIT =      F    spin-orbit coupling
   INIWAV =      1    electr: 0-lowe 1-rand  2-diag
   LASPH  =      T    aspherical Exc in radial PAW
   METAGGA=      F    non-selfconsistent MetaGGA calc.

 Electronic Relaxation 1
   ENCUT  =  500.0 eV  36.75 Ry    6.06 a.u.  23.35 22.71 36.31*2*pi/ulx,y,z
   ENINI  =  500.0     initial cutoff
   ENAUG  =  644.9 eV  augmentation charge cutoff
   NELM   =    250;   NELMIN=  2; NELMDL=  0     # of ELM steps
   EDIFF  = 0.1E-03   stopping-criterion for ELM
   LREAL  =      F    real-space projection
   NLSPLINE    = F    spline interpolate recip. space projectors
   LCOMPAT=      F    compatible to vasp.4.4
   GGA_COMPAT  = T    GGA compatible to vasp.4.4-vasp.4.6
   LMAXPAW     = -100 max onsite density
   LMAXMIX     =    2 max onsite mixed and CHGCAR
   VOSKOWN=      0    Vosko Wilk Nusair interpolation
   ROPT   =    0.00000   0.00000   0.00000   0.00000
 Ionic relaxation
   EDIFFG = -.3E-01   stopping-criterion for IOM
   NSW    =      0    number of steps for IOM
   NBLOCK =      1;   KBLOCK =      1    inner block; outer block
   IBRION =     -1    ionic relax: 0-MD 1-quasi-New 2-CG
   NFREE  =      1    steps in history (QN), initial steepest desc. (CG)
   ISIF   =      2    stress and relaxation
   IWAVPR =     10    prediction:  0-non 1-charg 2-wave 3-comb
   ISYM   =      3    0-nonsym 1-usesym 2-fastsym
   LCORR  =      T    Harris-Foulkes like correction to forces

   POTIM  = 0.5000    time-step for ionic-motion
   TEIN   =    0.0    initial temperature
   TEBEG  =    0.0;   TEEND  =   0.0 temperature during run
   SMASS  =  -3.00    Nose mass-parameter (am)
   estimated Nose-frequenzy (Omega)   =  0.10E-29 period in steps =****** mass=  -0.375E-26a.u.
   SCALEE = 1.0000    scale energy and forces
   NPACO  =    256;   APACO  = 16.0  distance and # of slots for P.C.
   PSTRESS=    0.0 pullay stress

  Mass of Ions in am
   POMASS =  12.01 14.00 63.55 55.85
  Ionic Valenz
   ZVAL   =   4.00  5.00 11.00  8.00
  Atomic Wigner-Seitz radii
  virtual crystal weights
   VCA    =   1.00  1.00  1.00  1.00
   NELECT =     245.0000    total number of electrons
   NUPDOWN=      -1.0000    fix difference up-down

 DOS related values:
   EMIN   =  10.00;   EMAX   =-10.00  energy-range for DOS
   EFERMI =   0.00
   ISMEAR =     0;   SIGMA  =   0.10  broadening in eV -4-tet -1-fermi 0-gaus

 Electronic relaxation 2 (details)
   IALGO  =     53    algorithm
   LDIAG  =      T    sub-space diagonalisation (order eigenvalues)
   LSUBROT=      F    optimize rotation matrix (better conditioning)
   TURBO    =      0    0=normal 1=particle mesh
   IRESTART =      0    0=no restart 2=restart with 2 vectors
   NREBOOT  =      0    no. of reboots
   NMIN     =      0    reboot dimension
   EREF     =   0.00    reference energy to select bands
   IMIX   =      4    mixing-type and parameters
     AMIX     =   0.40;   BMIX     =  1.00
     AMIX_MAG =   1.60;   BMIX_MAG =  1.00
     AMIN     =   0.10
     WC   =   100.;   INIMIX=   1;  MIXPRE=   1;  MAXMIX= -45

 Intra band minimization:
   WEIMIN = 0.0000     energy-eigenvalue tresh-hold
   EBREAK =  0.16E-06  absolut break condition
   DEPER  =   0.30     relativ break condition

   TIME   =   0.20     timestep for ELM

  volume/ion in A,a.u.               =      54.77       369.63
[...]
   33        0.866   1.778   0.000   2.644
   34        0.863   1.762   0.000   2.625
   35        0.862   1.752   0.000   2.614
   36        0.847   1.686   0.000   2.532
   37        0.860   1.757   0.000   2.617
   38        0.861   1.759   0.000   2.621
   39        0.856   1.728   0.000   2.584
   40        0.860   1.730   0.000   2.590
   41        0.850   1.745   0.000   2.595
   42        0.859   1.749   0.000   2.609
   43        0.865   1.762   0.000   2.627
   44        0.869   1.778   0.000   2.647
   45        0.864   1.780   0.000   2.644
   46        0.863   1.764   0.000   2.627
   47        0.868   1.761   0.000   2.629
   48        0.866   1.769   0.000   2.636
   49        0.867   1.779   0.000   2.646
   50        0.864   1.776   0.000   2.640
   51        0.873   1.671   0.000   2.544
   52        0.865   1.641   0.000   2.506
   53        0.860   1.651   0.000   2.510
   54        0.848   1.680   0.000   2.528
   55        1.228   2.637   0.000   3.864
   56        1.236   2.718   0.000   3.954
   57        0.542   0.492   9.155  10.189
   58        0.419   0.530   6.254   7.203
tot         50.109 101.038  15.409 166.556

 magnetization (x)

[...]

  FORCE on cell =-STRESS in cart. coord.  units (eV):
  Direction    XX          YY          ZZ          XY          YZ          ZX
  Alpha Z   100.63797   100.63797   100.63797
  Ewald   47898.04312 47699.09838-56503.16747    15.50932    -0.30850     0.17346
  Hartree 47351.35877 47308.76129-46635.11785    13.39613    -0.25882     0.27349
  E(xc)    -719.11248  -719.56520  -733.34844    -0.22494    -0.00064    -0.00089
  Local  -97847.55763-97633.41461100048.86252   -35.11159     0.55354    -0.47371
  n-local   -59.63281   -60.46597   -44.27270     2.56964     0.00458    -0.00853
  augment    96.01197    98.90856   107.14471     0.34911     0.00528    -0.00599
  Kinetic  3537.42953  3559.29510  4043.03501     4.99449     0.00752     0.03454
  Fock     -396.45792  -399.55593  -384.12402     0.90909    -0.00327     0.01344
  Total     -39.27949   -46.30042    -0.35027     2.39123    -0.00031     0.00580
  in kB     -19.80963   -23.35047    -0.17665     1.20596    -0.00016     0.00293

 VOLUME and BASIS-vectors are now :
  energy-cutoff  :      500.00
  volume of cell :     3176.87
      direct lattice vectors                 reciprocal lattice vectors
    12.806200000  0.000000000  0.000000000     0.078087177 -0.000607447  0.000044358
     0.096898073 12.456223116  0.000000000     0.000000000  0.080281157 -0.000008481
    -0.011296765  0.002103978 19.915596685     0.000000000  0.000000000  0.050211903

  length of vectors
    12.806200000 12.456600000 19.915600000     0.078089552  0.080281157  0.050211903

 FORCES acting on ions:
    Electron-Ion                     Ewald-Force                    Non-Local-Force
   0.317E+01 -.328E+00 0.661E-01   -.295E+01 0.144E+00 -.676E-01   -.109E+00 0.971E-01 0.133E-02
   0.105E+01 0.106E+01 0.223E+00   -.881E+00 -.112E+01 -.223E+00   -.515E-01 -.128E+00 0.142E-02
   0.400E+01 -.134E+01 0.791E-01   -.399E+01 0.152E+01 -.786E-01   -.136E+00 0.187E-01 -.112E-02
   0.454E+01 0.596E+01 0.192E-02   -.460E+01 -.592E+01 -.105E-02   -.941E-01 0.635E-01 0.747E-05
   0.696E+01 0.574E+01 -.670E-01   -.682E+01 -.561E+01 0.670E-01   -.174E+00 -.197E+00 -.279E-03
   0.781E+01 0.153E+00 0.314E+00   -.782E+01 -.335E+00 -.314E+00   -.238E-01 0.151E-01 0.221E-02
   0.684E+01 0.333E+01 0.169E+00   -.677E+01 -.303E+01 -.168E+00   -.143E+00 -.137E+00 -.343E-03
   0.715E+01 0.315E+02 -.399E+00   -.564E+01 -.319E+02 0.402E+00   -.154E+01 0.704E+00 -.512E-02
   0.423E+01 -.141E+01 0.331E+00   -.386E+01 0.133E+01 -.331E+00   -.318E+00 0.120E-01 0.356E-03
   0.221E+02 -.223E+01 0.294E+00   -.221E+02 0.245E+01 -.294E+00   -.124E-01 -.510E-01 0.160E-02
   0.266E+01 0.390E-01 0.185E+00   -.250E+01 0.767E-02 -.185E+00   -.329E-01 0.222E-01 -.392E-03
   0.165E+02 0.310E+01 0.262E+00   -.165E+02 -.342E+01 -.261E+00   0.334E-01 0.151E+00 0.989E-03
   0.515E+01 -.266E+02 -.711E-01   -.482E+01 0.266E+02 0.724E-01   -.504E+00 -.306E-01 -.276E-02
   0.259E+01 -.703E+01 0.203E-01   -.228E+01 0.704E+01 -.217E-01   -.130E+00 -.165E+00 0.177E-02
   -.161E+01 0.552E-01 0.733E-01   0.160E+01 -.762E-01 -.738E-01   -.419E-01 -.754E-01 -.623E-03
   0.694E+01 -.351E+01 0.314E-01   -.697E+01 0.340E+01 -.312E-01   -.143E+00 0.870E-01 -.157E-02
   0.349E+01 -.114E+01 0.475E-01   -.348E+01 0.129E+01 -.456E-01   -.373E-01 -.592E-01 -.231E-02
   0.715E+00 -.799E+00 0.609E+00   -.911E+00 0.536E+00 -.609E+00   0.433E+00 0.192E+00 0.219E-02
   0.144E+01 0.352E+01 0.594E-02   -.107E+01 -.330E+01 -.634E-02   -.161E+00 -.319E+00 0.761E-03
   0.270E+01 0.256E+01 0.354E+00   -.314E+01 -.255E+01 -.353E+00   0.162E+00 0.387E-01 0.539E-03
   -.203E+01 0.140E+02 0.371E+00   0.170E+01 -.145E+02 -.373E+00   0.123E+00 0.507E+00 0.359E-02
   0.123E+02 0.342E+02 -.299E+00   -.148E+02 -.372E+02 0.296E+00   0.262E+01 0.290E+01 0.133E-02
   0.808E+01 0.174E+02 -.419E+00   -.950E+01 -.159E+02 0.421E+00   0.117E+01 -.118E+01 -.346E-02
   0.571E+01 -.440E+02 -.473E+00   -.876E+01 0.479E+02 0.466E+00   0.286E+01 -.373E+01 0.633E-02
   0.265E+01 -.259E+02 -.161E+00   -.192E+01 0.254E+02 0.163E+00   -.347E+00 0.635E+00 -.111E-02
   -.686E+01 -.174E+02 0.993E-01   0.660E+01 0.179E+02 -.101E+00   0.559E-01 -.384E+00 0.125E-02
   -.231E+00 -.124E+02 0.428E+00   -.476E-02 0.126E+02 -.428E+00   0.472E+00 -.290E+00 0.118E-02
   0.158E+01 -.233E+01 0.282E+00   -.168E+01 0.238E+01 -.283E+00   0.115E+00 0.600E-01 0.175E-02
   0.604E+01 -.840E+01 0.229E+00   -.668E+01 0.793E+01 -.228E+00   0.372E+00 0.296E+00 0.241E-03
   -.300E+01 -.120E+01 0.714E+00   0.282E+01 0.141E+01 -.715E+00   0.126E+00 -.122E+00 0.251E-02
   -.501E+01 -.219E+00 0.371E+00   0.516E+01 0.171E+00 -.370E+00   -.159E+00 0.101E-01 -.104E-02
   -.116E+02 0.472E+01 0.407E+00   0.118E+02 -.497E+01 -.406E+00   -.158E+00 0.182E+00 0.316E-03
   -.320E+01 -.153E+00 0.615E+00   0.344E+01 0.317E-01 -.617E+00   -.216E+00 0.267E+00 0.318E-02
   0.129E+01 -.264E+01 0.283E+00   -.125E+01 0.280E+01 -.283E+00   -.148E+00 -.201E-01 -.970E-04
   -.251E+01 0.158E+01 0.216E+00   0.283E+01 -.159E+01 -.215E+00   -.336E+00 -.178E+00 -.135E-04
   -.354E+02 -.650E+01 -.371E+00   0.386E+02 0.663E+01 0.366E+00   -.344E+01 -.225E+00 0.336E-02
   -.127E+02 -.124E+01 0.876E-01   0.133E+02 0.123E+01 -.880E-01   -.435E+00 0.558E-01 0.675E-03
   -.182E+00 -.164E+01 0.227E+00   0.433E+00 0.192E+01 -.226E+00   -.208E+00 0.330E-01 -.450E-03
   -.354E+01 -.159E+01 0.893E-01   0.378E+01 0.142E+01 -.902E-01   -.111E-01 0.613E-01 0.167E-02
   -.540E+02 0.125E+02 -.459E+00   0.581E+02 -.129E+02 0.449E+00   -.406E+01 0.224E+00 0.729E-02
   -.116E+02 0.740E+01 -.363E+00   0.119E+02 -.728E+01 0.363E+00   -.283E+00 0.175E+00 -.129E-02
   0.317E+01 0.620E+01 0.248E+00   -.282E+01 -.637E+01 -.247E+00   -.343E+00 0.104E+00 0.486E-03
   -.932E+01 0.122E+01 0.235E+00   0.954E+01 -.139E+01 -.236E+00   -.317E+00 0.759E-01 0.153E-02
   -.133E+02 -.825E+01 0.188E+00   0.135E+02 0.841E+01 -.187E+00   -.152E+00 -.164E+00 -.701E-03
   -.157E+02 -.136E+00 0.927E-02   0.164E+02 0.486E+00 -.105E-01   -.524E+00 -.317E+00 0.125E-02
   -.455E+00 -.209E+00 0.271E+00   0.588E+00 0.209E+00 -.271E+00   -.189E+00 0.866E-01 0.102E-02
   -.637E+01 -.795E+00 0.282E+00   0.658E+01 0.783E+00 -.281E+00   -.128E+00 -.733E-01 -.212E-02
   -.520E+01 -.181E+01 0.660E+00   0.505E+01 0.173E+01 -.658E+00   0.111E+00 -.452E-01 -.446E-03
   -.468E+01 -.521E+01 0.475E+00   0.468E+01 0.534E+01 -.476E+00   -.103E+00 -.128E+00 0.243E-02
   0.141E+01 -.161E+01 0.258E+00   -.117E+01 0.172E+01 -.259E+00   -.189E+00 -.685E-01 0.736E-03
   0.434E+02 0.312E+01 -.115E-01   -.432E+02 -.205E+01 0.151E-01   -.514E+00 -.120E+01 -.240E-02
   0.338E+02 0.167E+01 0.145E+00   -.338E+02 -.230E+01 -.146E+00   -.216E+00 0.765E+00 0.220E-02
   -.807E+01 -.521E+01 -.853E+00   0.120E+02 0.108E+02 0.868E+00   -.436E+01 -.573E+01 -.180E-01
   0.228E+00 -.481E+01 -.718E+00   -.319E+01 0.102E+01 0.730E+00   0.324E+01 0.399E+01 -.139E-01
   -.731E+01 -.308E+02 -.988E+00   -.272E+01 0.474E+02 0.104E+01   0.991E+01 -.158E+02 -.508E-01
   -.236E+02 0.311E+02 -.148E+01   0.145E+02 -.464E+02 0.155E+01   0.884E+01 0.148E+02 -.679E-01
   0.148E+01 0.343E+01 -.791E+00   -.798E+01 0.241E+01 0.783E+00   0.604E+01 -.568E+01 0.750E-02
   -.159E+00 0.384E+02 -.222E+01   0.160E+01 -.442E+02 0.221E+01   -.611E+00 0.513E+01 0.967E-02
   -.167E+02 0.500E+01 0.114E+00   0.419E-12 -.156E-12 0.444E-15   0.156E+02 -.477E+01 -.104E+00

 POSITION                                       TOTAL-FORCE (eV/Angst)
      2.93735     12.43077      9.95819         0.102081     -0.082759     -0.000065
      0.70434      1.23399      9.95742         0.112569     -0.190517      0.001195
      1.51074     12.44207      9.95779        -0.132626      0.202338     -0.000630
      3.55906      1.21189      9.95881        -0.156636      0.112178      0.000875
      2.85549      2.44769      9.95920        -0.041518     -0.074131     -0.000346
      0.71691      3.71721      9.95763        -0.032972     -0.167648      0.002156
      1.42684      2.47250      9.95799        -0.075470      0.164920      0.000082
      3.60385      3.67912      9.96076        -0.110255      0.348808     -0.002287
      0.74981      6.20851      9.95760         0.033553     -0.079611      0.000730
      1.46485      4.95302      9.95802         0.025722      0.166828      0.001906
      0.79575      8.70326      9.95759         0.121431      0.071837     -0.000041
      1.50670      7.44523      9.95782         0.051042     -0.158917      0.001850
      3.63969      8.70317      9.95916        -0.201139     -0.052186     -0.001645
      2.93110      9.95040      9.95841         0.161944     -0.162857      0.000428
      0.80270     11.19988      9.95759        -0.062215     -0.098316     -0.001147
      1.50781      9.94761      9.95797        -0.166375     -0.009620     -0.001483
      3.64309     11.19256      9.95819        -0.026067      0.085676     -0.000575
      7.20770     12.44943      9.95644         0.261208     -0.067354      0.002346
      4.98275      1.22131      9.95900         0.192651     -0.119856      0.000400
      5.78138     12.43471      9.95741        -0.267846      0.055881      0.001721
      7.83163      1.22985      9.95762        -0.198694      0.023752      0.001972
      7.13549      2.45945      9.96055         0.295858      0.099619     -0.002017
      5.69506      2.47025      9.96098        -0.182737      0.285447     -0.000928
      7.22102      7.54609      9.96159        -0.048637     -0.090630     -0.000697
      5.09599      8.68660      9.95980         0.371055      0.090547      0.000082
      7.92640      8.77401      9.95878        -0.210819      0.158079     -0.000125
      7.20502      9.98944      9.95721         0.261631     -0.172236      0.001128
      5.06998     11.19378      9.95761         0.019736      0.112845      0.000701
      5.78409      9.95156      9.95801        -0.247115     -0.162228      0.001473
      7.92041     11.22535      9.95583        -0.049783      0.077774      0.002149
     11.48053     12.45608      9.95640        -0.029071     -0.035622      0.000215
      9.25063      1.24252      9.95701         0.099669     -0.063419      0.001481
      9.96170      0.00381      9.95583         0.023797      0.159463      0.001974
     12.08380      1.24736      9.95699        -0.109366      0.128809     -0.000118
     11.36685      2.49801      9.95761        -0.032813     -0.192916      0.000624
      9.17084      3.73439      9.96076        -0.449960     -0.108489     -0.001636
      9.92928      2.50237      9.95840         0.070928      0.039417      0.000334
     12.08853      3.73184      9.95780         0.031285      0.309241      0.000897
     11.36372      4.97546      9.95861         0.234917     -0.112985      0.000882
      9.26491      6.27775      9.96136        -0.256012     -0.233362     -0.001838
      9.92124      4.98390      9.96059        -0.055160      0.307548     -0.000727
     12.13378      6.21397      9.95783        -0.008649     -0.058586      0.001731
     11.44715      7.47583      9.95780        -0.119872     -0.085757      0.001173
      9.34394      8.75055      9.95800         0.113439     -0.014083      0.000391
     10.02808      7.49778      9.95900         0.102297      0.020591      0.000077
     12.17478      8.71241      9.95722        -0.060971      0.092174      0.000639
     11.47862      9.96724      9.95678         0.063867     -0.087813     -0.000949
      9.34562     11.22269      9.95562        -0.033823     -0.128411      0.001599
     10.05806      9.98229      9.95642        -0.099903     -0.009187      0.001225
     12.18860     11.20964      9.95680         0.047192      0.039608     -0.000282
      2.85655      4.88770      9.95961        -0.369229     -0.203489      0.001108
      2.91760      7.49157      9.95882        -0.192104      0.191052      0.000958
      5.04709      3.72979      9.96253        -0.623558     -0.472184     -0.004390
      5.80504      7.44597      9.96195         0.459268      0.424492     -0.002877
      7.76496      3.68275      9.96234         0.721877     -0.484074     -0.004574
      7.91572      6.35051      9.96354         0.467920      0.774316     -0.004815
      4.26099      6.11154      9.96100        -0.742782     -0.054830     -0.000816
      6.45960      5.18897      9.96414         0.947239     -0.509167     -0.001496
    total drift:                               -0.002651     -0.004828      0.000027

  FREE ENERGIE OF THE ION-ELECTRON SYSTEM (eV)
  free  energy   TOTEN  =      -599.59441768 eV

  energy  without entropy=     -599.59441718  energy(sigma->0) =     -599.59441743

 stress matrix after NEB project (eV)
    -39.27949      2.39189      0.00580
      2.39123    -46.30042     -0.00026
      0.00580     -0.00031     -0.35027
  FORCES: max atom, RMS     1.075414    0.343273
  FORCE total and by dimension    2.614291    0.947239
  Stress total and by dimension   60.812574   46.300421
 writing wavefunctions

 total charge

[...]

 magnetization (x)

# of ion       s       p       d       tot
    1       -0.002  -0.029   0.000  -0.031
    2       -0.001  -0.012   0.000  -0.013
    3        0.001   0.008   0.000   0.009
    4        0.002   0.026   0.000   0.028
    5       -0.002  -0.023   0.000  -0.025
    6       -0.002  -0.030   0.000  -0.032
    7        0.001   0.012   0.000   0.013
    8        0.001   0.018   0.000   0.019
    9       -0.002  -0.033   0.000  -0.035
   10        0.003   0.024   0.000   0.027
   11       -0.002  -0.024   0.000  -0.027
   12        0.002   0.024   0.000   0.026
   13        0.001   0.011   0.000   0.012
   14       -0.001  -0.013   0.000  -0.014
   15       -0.002  -0.024   0.000  -0.026
   16        0.002   0.020   0.000   0.022
   17        0.002   0.017   0.000   0.019
   18       -0.005  -0.070   0.000  -0.075
   19       -0.002  -0.024   0.000  -0.027
   20        0.002   0.024   0.000   0.026
   21        0.003   0.028   0.000   0.031
   22       -0.006  -0.076   0.000  -0.082
   23        0.004   0.042   0.000   0.045
   24       -0.001  -0.029   0.000  -0.030
   25       -0.004  -0.044   0.000  -0.048
   26        0.002   0.022   0.000   0.024
   27       -0.001  -0.014   0.000  -0.015
   28       -0.003  -0.035   0.000  -0.038
   29        0.002   0.020   0.000   0.021
   30        0.003   0.026   0.000   0.029
   31       -0.002  -0.034   0.000  -0.037
   32       -0.001  -0.014   0.000  -0.015
   33        0.002   0.019   0.000   0.021
   34        0.002   0.021   0.000   0.022
   35       -0.002  -0.028   0.000  -0.030
   36       -0.002  -0.026   0.000  -0.028
   37        0.001   0.017   0.000   0.019
   38        0.001   0.009   0.000   0.010
   39       -0.001  -0.012   0.000  -0.013
   40       -0.001  -0.013   0.000  -0.014
   41        0.001   0.007   0.000   0.008
   42        0.002   0.017   0.000   0.019
   43       -0.002  -0.027   0.000  -0.029
   44       -0.004  -0.056   0.000  -0.060
   45        0.002   0.015   0.000   0.016
   46        0.001   0.016   0.000   0.017
   47       -0.001  -0.012   0.000  -0.014
   48       -0.004  -0.052   0.000  -0.056
   49        0.003   0.025   0.000   0.028
   50        0.002   0.017   0.000   0.019
   51       -0.006  -0.077   0.000  -0.084
   52       -0.007  -0.067   0.000  -0.073
   53       -0.012  -0.121   0.000  -0.133
   54       -0.004  -0.009   0.000  -0.013
   55       -0.005  -0.005   0.000  -0.010
   56       -0.005  -0.025   0.000  -0.030
   57       -0.001  -0.021   0.033   0.011
   58        0.040   0.012   1.951   2.003
tot         -0.010  -0.585   1.984   1.389