 vasp.5.4.4.18Apr17-6-g9f103f2a35 (build Feb 25 2019 10:51:38) complex

 executed on             LinuxIFC date 2021.07.24  10:53:47

 INCAR:
 POTCAR:    PAW_PBE C 08Apr2002
 POTCAR:    PAW_PBE N 08Apr2002
 POTCAR:    PAW_PBE Ni 02Aug2007
 POTCAR:    PAW_PBE Fe 06Sep2000

 POTCAR:    PAW_PBE C 08Apr2002
   VRHFIN =C: s2p2

   TITEL  = PAW_PBE C 08Apr2002
   POMASS =   12.011; ZVAL   =    4.000    mass and valenz
   ENMAX  =  400.000; ENMIN  =  300.000 eV

 POTCAR:    PAW_PBE N 08Apr2002
   VRHFIN =N: s2p3

   TITEL  = PAW_PBE N 08Apr2002
   POMASS =   14.001; ZVAL   =    5.000    mass and valenz
   ENMAX  =  400.000; ENMIN  =  300.000 eV

 POTCAR:    PAW_PBE Ni 02Aug2007
   VRHFIN =Ni:

   TITEL  = PAW_PBE Ni 02Aug2007
   POMASS =   58.690; ZVAL   =   10.000    mass and valenz
   ENMAX  =  269.532; ENMIN  =  202.149 eV

 POTCAR:    PAW_PBE Fe 06Sep2000
   VRHFIN =Fe:  d7 s1

   TITEL  = PAW_PBE Fe 06Sep2000
   POMASS =   55.847; ZVAL   =    8.000    mass and valenz
   ENMAX  =  267.882; ENMIN  =  200.911 eV

  PAW_PBE C 08Apr2002                   :
  PAW_PBE N 08Apr2002                   :
  PAW_PBE Ni 02Aug2007                  :
  PAW_PBE Fe 06Sep2000                  :

 POSCAR:  C  N Ni Fe
  positions in cartesian coordinates
 exchange correlation table for  LEXCH =        8
   RHO(1)=    0.500       N(1)  =     2000
   RHO(2)=  100.500       N(2)  =     4000

 VTST: version 3.2, (02/03/18)

 CHAIN: initializing optimizer

 OPT: Using VASP Conjugate-Gradient optimizer
 CHAIN: Read ICHAIN            0

 POSCAR:  C  N Ni Fe
  positions in cartesian coordinates

 ion  position               nearest neighbor table
   1  0.222  0.998  0.500-   3 1.41   4 1.43  17 1.43
   2  0.055  0.099  0.500-  34 1.42   7 1.43   3 1.44
   3  0.111  0.999  0.500-   1 1.41  15 1.43   2 1.44
   4  0.277  0.097  0.500-  19 1.41   5 1.42   1 1.43
   5  0.222  0.196  0.500-   7 1.42   4 1.42   8 1.44
   6  0.054  0.299  0.500-  38 1.42  10 1.44   7 1.44
   7  0.110  0.199  0.500-   5 1.42   2 1.43   6 1.44
   8  0.279  0.295  0.500-  51 1.43  53 1.43   5 1.44  57 2.49
   9  0.057  0.498  0.500-  42 1.42  10 1.45  12 1.45
  10  0.112  0.397  0.500-  51 1.40   6 1.44   9 1.45
  11  0.058  0.698  0.500-  46 1.42  16 1.43  12 1.45
  12  0.116  0.598  0.500-  52 1.42  11 1.45   9 1.45
  13  0.279  0.700  0.500-  52 1.41  14 1.43  25 1.44
  14  0.224  0.799  0.500-  16 1.41  13 1.43  17 1.43
  15  0.056  0.899  0.500-  50 1.41   3 1.43  16 1.44
  16  0.112  0.799  0.500-  14 1.41  11 1.43  15 1.44
  17  0.278  0.899  0.500-  28 1.41   1 1.43  14 1.43
  18  0.556  0.999  0.500-  20 1.41  30 1.42  21 1.43
  19  0.389  0.098  0.500-   4 1.41  20 1.43  23 1.43
  20  0.444  0.998  0.500-  18 1.41  28 1.43  19 1.43
  21  0.611  0.098  0.500-  32 1.41  22 1.41  18 1.43
  22  0.556  0.196  0.500-  55 1.38  21 1.41  23 1.42
  23  0.444  0.197  0.500-  22 1.42  53 1.43  19 1.43
  24  0.558  0.607  0.500-  56 1.39  54 1.41  26 1.42  58 2.53
  25  0.393  0.699  0.500-  54 1.43  29 1.43  13 1.44
  26  0.613  0.705  0.500-  44 1.41  27 1.41  24 1.42
  27  0.557  0.802  0.500-  29 1.41  26 1.41  30 1.42
  28  0.390  0.899  0.500-  17 1.41  20 1.43  29 1.43
  29  0.446  0.800  0.500-  27 1.41  28 1.43  25 1.43
  30  0.612  0.901  0.500-  48 1.41  18 1.42  27 1.42
  31  0.890  1.000  0.500-  33 1.41  34 1.43  50 1.44
  32  0.722  0.100  0.500-  21 1.41  37 1.43  33 1.43
  33  0.778  0.000  0.500-  31 1.41  48 1.43  32 1.43
  34  0.943  0.100  0.500-   2 1.42  31 1.43  35 1.45
  35  0.887  0.200  0.500-  37 1.42  38 1.43  34 1.45
  36  0.714  0.300  0.500-  55 1.39  37 1.45  41 1.46
  37  0.774  0.201  0.500-  35 1.42  32 1.43  36 1.45
  38  0.942  0.300  0.500-   6 1.42  35 1.43  39 1.44
  39  0.885  0.400  0.500-  41 1.44  38 1.44  42 1.46
  40  0.719  0.504  0.500-  56 1.35  45 1.44  41 1.46
  41  0.771  0.400  0.500-  39 1.44  36 1.46  40 1.46
  42  0.944  0.499  0.500-   9 1.42  43 1.44  39 1.46
  43  0.890  0.600  0.500-  45 1.41  46 1.44  42 1.44
  44  0.724  0.702  0.500-  26 1.41  49 1.42  45 1.43
  45  0.778  0.602  0.500-  43 1.41  44 1.43  40 1.44
  46  0.946  0.699  0.500-  11 1.42  43 1.44  47 1.44
  47  0.891  0.800  0.500-  49 1.41  50 1.43  46 1.44
  48  0.724  0.901  0.500-  30 1.41  33 1.43  49 1.43
  49  0.780  0.801  0.500-  47 1.41  44 1.42  48 1.43
  50  0.945  0.900  0.500-  15 1.41  47 1.43  31 1.44
  51  0.222  0.393  0.500-  10 1.40   8 1.43  57 1.80
  52  0.228  0.600  0.500-  13 1.41  12 1.42  57 1.90
  53  0.393  0.299  0.500-  23 1.43   8 1.43  58 1.99  57 2.50
  54  0.447  0.599  0.500-  24 1.41  25 1.43  57 2.05  58 2.42
  55  0.604  0.295  0.500-  22 1.38  36 1.39  58 1.98
  56  0.613  0.511  0.500-  40 1.35  24 1.39  58 1.88
  57  0.329  0.488  0.500-  51 1.80  52 1.90  54 2.05  58 2.37   8 2.49  53 2.50
  58  0.501  0.413  0.500-  56 1.88  55 1.98  53 1.99  57 2.37  54 2.42  24 2.53

  LATTYP: Found a triclinic cell.
 ALAT       =    17.8033188971
 B/A-ratio  =     0.7042394776
 C/A-ratio  =     1.1240488426
 COS(alpha) =     0.0000994838
 COS(beta)  =     0.0004809228
 COS(gamma) =     0.7029919957

  Lattice vectors:

 A1 = (  12.6397080092, -12.5377807124,   0.0000000000)
 A2 = (  -0.0219919908, -12.5377807124,   0.0000000000)
 A3 = (   0.0115608959,  -0.0020111308, -20.0117965596)

Analysis of symmetry for initial positions (statically):
 Subroutine PRICEL returns:
 Original cell was already a primitive cell.

 Routine SETGRP: Setting up the symmetry group for a
 triclinic supercell.

 Subroutine GETGRP returns: Found  1 space group operations
 (whereof  1 operations were pure point group operations)
 out of a pool of  2 trial point group operations.

The static configuration has the point symmetry C_1 .

Analysis of symmetry for dynamics (positions and initial velocities):
 Subroutine PRICEL returns:
 Original cell was already a primitive cell.

[...]

The dynamic configuration has the point symmetry C_1 .

Analysis of structural, dynamic, and magnetic symmetry:
 Subroutine PRICEL returns:
 Original cell was already a primitive cell.

 Routine SETGRP: Setting up the symmetry group for a
 triclinic supercell.

 Subroutine GETGRP returns: Found  1 space group operations
 (whereof  1 operations were pure point group operations)
 out of a pool of  2 trial point group operations.

The magnetic configuration has the point symmetry C_1 .

 Subroutine INISYM returns: Found  1 space group operations
 (whereof  1 operations are pure point group operations),
 and found     1 'primitive' translations

 KPOINTS: KPOINTS created by Atomic Simulation Env

Automatic generation of k-mesh.
Space group operators:
 irot       det(A)        alpha          n_x          n_y          n_z        tau_x        tau_y        tau_z
    1     1.000000     0.000000     1.000000     0.000000     0.000000     0.000000     0.000000     0.000000

 Subroutine IBZKPT returns following result:

 Found      2 irreducible k-points:

 Following reciprocal coordinates:
            Coordinates               Weight
  0.250000  0.250000 -0.000000      2.000000
 -0.250000  0.250000  0.000000      2.000000

 Following cartesian coordinates:
            Coordinates               Weight
  0.019745  0.019905  0.000009      2.000000
 -0.019745  0.019974 -0.000013      2.000000

 Subroutine IBZKPT_HF returns following result:

 Found      4 k-points in 1st BZ
 the following      4 k-points will be used (e.g. in the exchange kernel)
 Following reciprocal coordinates:   # in IRBZ
  0.250000  0.250000 -0.000000    0.25000000   1 t-inv F
 -0.250000  0.250000  0.000000    0.25000000   2 t-inv F
 -0.250000 -0.250000  0.000000    0.25000000   1 t-inv T
  0.250000 -0.250000 -0.000000    0.25000000   2 t-inv T

 SYSTEM =  unknown system
 POSCAR =   C  N Ni Fe

 Startparameter for this run:
   NWRITE =      2    write-flag & timer
   PREC   = accura    normal or accurate (medium, high low for compatibility)
   ISTART =      1    job   : 0-new  1-cont  2-samecut
   ICHARG =      0    charge: 1-file 2-atom 10-const
   ISPIN  =      2    spin polarized calculation?
   LNONCOLLINEAR =      F non collinear calculations
   LSORBIT =      F    spin-orbit coupling
   INIWAV =      1    electr: 0-lowe 1-rand  2-diag
   LASPH  =      T    aspherical Exc in radial PAW
   METAGGA=      F    non-selfconsistent MetaGGA calc.

 Electronic Relaxation 1
   ENCUT  =  500.0 eV  36.75 Ry    6.06 a.u.  23.09 22.86 36.49*2*pi/ulx,y,z
   ENINI  =  500.0     initial cutoff
   ENAUG  =  644.9 eV  augmentation charge cutoff
   NELM   =    250;   NELMIN=  2; NELMDL=  0     # of ELM steps
   EDIFF  = 0.1E-03   stopping-criterion for ELM
   LREAL  =      F    real-space projection
   NLSPLINE    = F    spline interpolate recip. space projectors
   LCOMPAT=      F    compatible to vasp.4.4
   GGA_COMPAT  = T    GGA compatible to vasp.4.4-vasp.4.6
   LMAXPAW     = -100 max onsite density
   LMAXMIX     =    2 max onsite mixed and CHGCAR
   VOSKOWN=      0    Vosko Wilk Nusair interpolation
   ROPT   =    0.00000   0.00000   0.00000   0.00000
 Ionic relaxation
   EDIFFG = -.3E-01   stopping-criterion for IOM
   NSW    =      0    number of steps for IOM
   NBLOCK =      1;   KBLOCK =      1    inner block; outer block
   IBRION =     -1    ionic relax: 0-MD 1-quasi-New 2-CG
   NFREE  =      1    steps in history (QN), initial steepest desc. (CG)
   ISIF   =      2    stress and relaxation
   IWAVPR =     10    prediction:  0-non 1-charg 2-wave 3-comb
   ISYM   =      3    0-nonsym 1-usesym 2-fastsym
   LCORR  =      T    Harris-Foulkes like correction to forces

   POTIM  = 0.5000    time-step for ionic-motion
   TEIN   =    0.0    initial temperature
   TEBEG  =    0.0;   TEEND  =   0.0 temperature during run
   SMASS  =  -3.00    Nose mass-parameter (am)
   estimated Nose-frequenzy (Omega)   =  0.10E-29 period in steps =****** mass=  -0.366E-26a.u.
   SCALEE = 1.0000    scale energy and forces
   NPACO  =    256;   APACO  = 16.0  distance and # of slots for P.C.
   PSTRESS=    0.0 pullay stress

  Mass of Ions in am
   POMASS =  12.01 14.00 58.69 55.85
  Ionic Valenz
   ZVAL   =   4.00  5.00 10.00  8.00
  Atomic Wigner-Seitz radii
  virtual crystal weights
   VCA    =   1.00  1.00  1.00  1.00
   NELECT =     244.0000    total number of electrons
   NUPDOWN=      -1.0000    fix difference up-down

 DOS related values:
   EMIN   =  10.00;   EMAX   =-10.00  energy-range for DOS
   EFERMI =   0.00
   ISMEAR =     0;   SIGMA  =   0.10  broadening in eV -4-tet -1-fermi 0-gaus

 Electronic relaxation 2 (details)
   IALGO  =     53    algorithm
   LDIAG  =      T    sub-space diagonalisation (order eigenvalues)
   LSUBROT=      F    optimize rotation matrix (better conditioning)
   TURBO    =      0    0=normal 1=particle mesh
   IRESTART =      0    0=no restart 2=restart with 2 vectors
   NREBOOT  =      0    no. of reboots
   NMIN     =      0    reboot dimension
   EREF     =   0.00    reference energy to select bands
   IMIX   =      4    mixing-type and parameters
     AMIX     =   0.40;   BMIX     =  1.00
     AMIX_MAG =   1.60;   BMIX_MAG =  1.00
     AMIN     =   0.10
     WC   =   100.;   INIMIX=   1;  MIXPRE=   1;  MAXMIX= -45

 Intra band minimization:
[...]
   33        0.868   1.786   0.000   2.655
   34        0.864   1.770   0.000   2.634
   35        0.865   1.754   0.000   2.619
   36        0.850   1.690   0.000   2.539
   37        0.862   1.764   0.000   2.626
   38        0.863   1.766   0.000   2.629
   39        0.859   1.721   0.000   2.580
   40        0.862   1.724   0.000   2.586
   41        0.850   1.748   0.000   2.597
   42        0.859   1.756   0.000   2.615
   43        0.867   1.761   0.000   2.628
   44        0.872   1.775   0.000   2.647
   45        0.865   1.781   0.000   2.645
   46        0.864   1.765   0.000   2.628
   47        0.868   1.764   0.000   2.633
   48        0.869   1.773   0.000   2.642
   49        0.868   1.785   0.000   2.653
   50        0.867   1.780   0.000   2.646
   51        0.888   1.677   0.000   2.565
   52        0.872   1.639   0.000   2.512
   53        0.870   1.641   0.000   2.511
   54        0.858   1.670   0.000   2.527
   55        1.231   2.646   0.000   3.877
   56        1.238   2.712   0.000   3.950
   57        0.558   0.567   8.495   9.620
   58        0.429   0.539   6.251   7.219
tot         50.309 101.403  14.746 166.458

 magnetization (x)

[...]

  FORCE on cell =-STRESS in cart. coord.  units (eV):
  Direction    XX          YY          ZZ          XY          YZ          ZX
  Alpha Z    99.03815    99.03815    99.03815
  Ewald   48054.62953 47869.84752-56585.71299    20.48609    -0.18514     0.07153
  Hartree 47418.16422 47384.92494-46796.59786    15.06666    -0.21585     0.30066
  E(xc)    -713.20373  -713.55116  -727.39032    -0.21703     0.00006    -0.00175
  Local  -98156.17741-97972.13458100205.26564   -41.17403     0.40761    -0.41651
  n-local  -102.85640   -99.66443   -79.71826     2.38627    -0.00081    -0.00971
  augment   174.45336   179.21512   195.93970    -0.91128    -0.00122    -0.01365
  Kinetic  3558.85733  3547.87704  4020.82487    12.92358    -0.00925     0.06979
  Fock     -347.26028  -350.02675  -331.94655     1.41643     0.00290     0.00750
  Total     -14.35523   -54.47415    -0.29761     9.97670    -0.00170     0.00786
  in kB      -7.23972   -27.47276    -0.15009     5.03151    -0.00086     0.00396

 VOLUME and BASIS-vectors are now :
  energy-cutoff  :      500.00
  volume of cell :     3176.87
      direct lattice vectors                 reciprocal lattice vectors
    12.661700000  0.000000000  0.000000000     0.078978336 -0.000138533  0.000045640
     0.021991991 12.537780712  0.000000000     0.000000000  0.079758932 -0.000008016
    -0.011560896  0.002011131 20.011796560     0.000000000  0.000000000  0.049970526

  length of vectors
    12.661700000 12.537800000 20.011800000     0.078978471  0.079758932  0.049970526

 FORCES acting on ions:
    Electron-Ion                     Ewald-Force                    Non-Local-Force
   0.629E+00 0.109E+01 0.759E-01   -.506E+00 -.125E+01 -.776E-01   -.872E-01 0.599E-01 0.251E-02
   -.177E+01 0.179E+01 0.242E+00   0.187E+01 -.167E+01 -.242E+00   -.171E+00 -.118E+00 0.123E-02
   0.767E+01 -.190E+01 0.764E-01   -.761E+01 0.185E+01 -.757E-01   -.634E-01 0.112E-01 -.119E-03
   0.771E+01 0.359E+01 -.131E-02   -.779E+01 -.342E+01 0.281E-02   0.108E+00 -.131E+00 -.112E-02
   0.416E+01 0.485E+01 -.661E-01   -.378E+01 -.424E+01 0.661E-01   -.320E+00 -.632E+00 -.215E-03
   0.482E+01 0.130E+01 0.331E+00   -.439E+01 -.829E+00 -.329E+00   -.427E+00 -.454E+00 -.108E-02
   0.965E+01 0.638E-01 0.212E+00   -.942E+01 0.171E+00 -.212E+00   -.206E+00 -.211E+00 0.680E-03
   0.864E+01 0.255E+02 -.455E+00   -.829E+01 -.253E+02 0.460E+00   -.547E+00 -.398E+00 -.679E-02
   0.838E+00 -.303E+01 0.514E+00   0.621E-02 0.315E+01 -.516E+00   -.951E+00 -.715E-01 0.363E-02
   0.210E+02 -.508E+01 0.430E+00   -.200E+02 0.507E+01 -.430E+00   -.771E+00 -.232E+00 0.141E-02
   -.839E+00 0.423E+01 0.118E+00   0.135E+01 -.479E+01 -.119E+00   -.510E+00 0.499E+00 -.535E-03
   0.149E+02 0.322E+01 0.317E+00   -.135E+02 -.316E+01 -.315E+00   -.132E+01 0.156E+00 -.562E-03
   0.901E+01 -.187E+02 -.151E+00   -.942E+01 0.174E+02 0.152E+00   0.601E-01 0.120E+01 -.133E-02
   0.457E+00 -.439E+01 -.205E+00   -.237E+00 0.378E+01 0.204E+00   -.246E+00 0.582E+00 -.124E-02
   -.488E+01 0.173E+01 -.420E-01   0.503E+01 -.186E+01 0.411E-01   -.184E+00 0.180E+00 -.482E-03
   0.102E+02 -.229E+01 -.131E+00   -.100E+02 0.194E+01 0.131E+00   -.138E+00 0.286E+00 -.175E-02
   0.727E+01 -.105E+01 -.624E-01   -.745E+01 0.904E+00 0.654E-01   0.123E+00 0.214E+00 -.371E-02
   -.255E+01 0.111E+01 0.970E+00   0.218E+01 -.142E+01 -.969E+00   0.376E+00 0.269E+00 0.363E-02
   -.209E-01 0.401E+01 0.965E-01   -.127E-01 -.380E+01 -.976E-01   -.710E-01 -.262E+00 0.180E-02
   0.576E+01 0.196E+01 0.605E+00   -.616E+01 -.204E+01 -.604E+00   0.330E+00 0.659E-01 0.217E-02
   -.246E-01 0.121E+02 0.676E+00   0.951E-01 -.127E+02 -.680E+00   -.119E-01 0.570E+00 0.712E-02
   0.767E+01 0.331E+02 -.305E+00   -.101E+02 -.357E+02 0.300E+00   0.264E+01 0.301E+01 0.402E-02
   0.134E+02 0.128E+02 -.547E+00   -.150E+02 -.113E+02 0.552E+00   0.130E+01 -.117E+01 -.569E-02
   0.679E+01 -.378E+02 -.563E+00   -.105E+02 0.417E+02 0.551E+00   0.362E+01 -.371E+01 0.102E-01
   0.646E+00 -.170E+02 -.267E+00   -.453E+00 0.157E+02 0.272E+00   0.125E-01 0.113E+01 -.499E-02
   -.388E+01 -.147E+02 0.104E+00   0.350E+01 0.150E+02 -.104E+00   0.350E+00 -.249E+00 0.694E-03
   -.287E+01 -.924E+01 0.503E+00   0.234E+01 0.927E+01 -.502E+00   0.450E+00 -.108E+00 0.787E-03
   -.776E+00 -.573E+00 0.327E+00   0.669E+00 0.378E+00 -.328E+00   0.986E-01 0.245E+00 0.123E-02
   0.895E+01 -.637E+01 0.195E+00   -.931E+01 0.572E+01 -.193E+00   0.440E+00 0.616E+00 -.230E-02
   -.263E+00 -.200E+01 0.920E+00   0.155E+00 0.192E+01 -.921E+00   0.113E+00 0.154E+00 0.347E-02
   -.877E+01 0.151E+01 0.299E+00   0.896E+01 -.153E+01 -.298E+00   -.214E+00 0.306E-01 -.153E-02
   -.148E+02 0.465E+01 0.557E+00   0.150E+02 -.486E+01 -.555E+00   -.298E+00 0.262E+00 0.360E-03
   -.320E+00 -.654E+00 0.623E+00   0.560E+00 0.389E+00 -.625E+00   -.215E+00 0.205E+00 0.239E-02
   0.395E+01 -.448E+01 0.320E+00   -.374E+01 0.447E+01 -.321E+00   -.131E+00 -.126E-01 0.105E-02
   -.652E+01 0.130E+01 0.299E+00   0.692E+01 -.112E+01 -.298E+00   -.405E+00 -.112E+00 -.128E-03
   -.396E+02 -.808E+01 -.417E+00   0.430E+02 0.831E+01 0.408E+00   -.351E+01 -.326E+00 0.769E-02
   -.932E+01 -.391E+01 0.190E+00   0.983E+01 0.382E+01 -.190E+00   -.434E+00 0.972E-01 0.182E-02
   0.292E+01 -.410E+01 0.315E+00   -.252E+01 0.406E+01 -.314E+00   -.384E+00 -.419E-01 0.785E-03
   -.490E+01 -.171E+01 0.169E+00   0.502E+01 0.170E+01 -.170E+00   -.228E+00 -.615E-01 0.227E-02
   -.552E+02 0.150E+02 -.437E+00   0.588E+02 -.151E+02 0.425E+00   -.404E+01 0.307E+00 0.113E-01
   -.885E+01 0.342E+01 -.441E+00   0.922E+01 -.357E+01 0.444E+00   -.178E+00 0.541E-01 -.368E-02
   0.394E+01 0.438E+01 0.375E+00   -.325E+01 -.429E+01 -.374E+00   -.462E+00 -.392E-01 0.366E-03
   -.119E+02 0.304E+01 0.379E+00   0.123E+02 -.302E+01 -.379E+00   -.456E+00 0.688E-01 0.205E-02
   -.162E+02 -.500E+01 0.270E+00   0.163E+02 0.516E+01 -.268E+00   -.737E-01 -.197E+00 -.253E-03
   -.130E+02 0.183E+00 0.194E+00   0.137E+02 0.222E+00 -.197E+00   -.588E+00 -.306E+00 0.407E-02
   0.122E+01 0.885E-01 0.286E+00   -.749E+00 -.185E+00 -.286E+00   -.457E+00 0.542E-01 0.111E-02
   -.964E+01 0.189E+01 0.223E+00   0.980E+01 -.201E+01 -.222E+00   -.233E+00 0.105E+00 -.170E-02
   -.931E+01 0.198E+00 0.651E+00   0.926E+01 -.213E+00 -.649E+00   0.200E-01 0.546E-01 -.237E-02
   -.225E+01 -.477E+01 0.436E+00   0.249E+01 0.488E+01 -.437E+00   -.154E+00 -.112E+00 0.984E-03
   0.484E+01 -.184E+01 0.128E+00   -.459E+01 0.183E+01 -.129E+00   -.182E+00 0.254E-01 -.476E-03
   0.436E+02 0.491E+01 0.156E+00   -.405E+02 0.102E+01 -.157E+00   -.285E+01 -.579E+01 0.259E-02
   0.274E+02 0.380E+01 0.186E+00   -.240E+02 -.880E+01 -.181E+00   -.305E+01 0.498E+01 -.219E-02
   -.594E+01 -.692E+01 -.116E+01   0.963E+01 0.133E+02 0.117E+01   -.413E+01 -.657E+01 -.242E-01
   0.111E+02 0.638E+01 -.757E+00   -.153E+02 -.119E+02 0.764E+00   0.431E+01 0.559E+01 -.802E-02
   -.492E+01 -.336E+02 -.157E+01   -.591E+01 0.502E+02 0.166E+01   0.104E+02 -.160E+02 -.899E-01
   -.149E+02 0.297E+02 -.181E+01   0.483E+01 -.444E+02 0.190E+01   0.986E+01 0.140E+02 -.841E-01
   -.128E+02 -.770E+01 0.630E+00   0.616E+01 0.154E+02 -.625E+00   0.677E+01 -.678E+01 -.162E-02
   0.532E+01 0.193E+02 -.385E+01   -.441E+01 -.241E+02 0.382E+01   -.188E+00 0.489E+01 0.225E-01
   -.128E+02 0.491E+01 0.160E+00   0.316E-12 -.924E-13 -.222E-14   0.125E+02 -.409E+01 -.146E+00

 POSITION                                       TOTAL-FORCE (eV/Angst)
      2.83126     12.51515     10.00634         0.023921     -0.088973      0.000868
      0.69202      1.24346     10.00545        -0.084103     -0.003341      0.000883
      1.41677     12.52588     10.00599         0.001576     -0.034941      0.000598
      3.50809      1.22182     10.00690         0.043791      0.037158      0.000303
      2.81192      2.46456     10.00727         0.042552     -0.050277     -0.000245
      0.68923      3.74445     10.00545        -0.022032     -0.000172      0.000674
      1.39388      2.49018     10.00590         0.024067      0.008418      0.000094
      3.53737      3.70493     10.00900        -0.218857     -0.233513     -0.001588
      0.72099      6.24822     10.00498        -0.166183      0.045185      0.002431
      1.41889      4.98204     10.00547         0.199163     -0.255072      0.001355
      0.75011      8.75353     10.00584        -0.034375     -0.021826     -0.000824
      1.47195      7.49330     10.00560         0.023257      0.227952      0.000952
      3.54503      8.77567     10.00745        -0.345380     -0.081253     -0.000921
      2.84231     10.01960     10.00713        -0.046860      0.000183     -0.002318
      0.72933     11.27152     10.00612        -0.056668      0.063667     -0.001434
      1.43025     10.01406     10.00661         0.086829     -0.046686     -0.001878
      3.53313     11.27217     10.00659        -0.044086      0.076696     -0.000955
      7.05519     12.52889     10.00343         0.016714     -0.033515      0.005340
      4.92100      1.22554     10.00689        -0.116057     -0.063700      0.000814
      5.64174     12.51808     10.00474        -0.042727     -0.011579      0.003593
      7.73482      1.23325     10.00494         0.066028     -0.049374      0.003414
      7.03836      2.46324     10.00904         0.350664      0.497821     -0.000456
      5.61680      2.47573     10.00963        -0.225164      0.265823     -0.001581
      7.07081      7.61010     10.01023         0.048045     -0.088873     -0.001661
      4.98319      8.76253     10.00815         0.198953     -0.154425     -0.000247
      7.77471      8.83765     10.00693        -0.009432      0.035475      0.000113
      7.06624     10.06100     10.00503        -0.066851     -0.090115      0.001249
      4.94630     11.27165     10.00552        -0.011526      0.063391      0.000695
      5.65703     10.02830     10.00612         0.116648     -0.005989      0.000158
      7.76578     11.29992     10.00321         0.016250      0.075678      0.002746
     11.28061     12.53745     10.00466        -0.043654      0.018540     -0.000283
      9.14284      1.24856     10.00464        -0.092061      0.068003      0.002618
      9.84916      0.00479     10.00379         0.024920     -0.051964      0.000937
     11.93692      1.25701     10.00497         0.090759     -0.031446      0.000397
     11.22446      2.51475     10.00542        -0.030439      0.067629      0.000855
      9.04403      3.75822     10.00940        -0.292311     -0.116624     -0.000767
      9.80102      2.51832     10.00629         0.065451      0.002033      0.001337
     11.92641      3.76050     10.00554         0.005982     -0.090083      0.001478
     11.20707      5.01169     10.00645        -0.123343     -0.076540      0.001408
      9.10670      6.32021     10.00979        -0.612132      0.167867      0.000036
      9.76799      5.02069     10.00906         0.191598     -0.096703     -0.001752
     11.96302      6.25605     10.00539         0.211639      0.051056      0.001382
     11.27548      7.52269     10.00546        -0.061326      0.094284      0.001628
      9.18213      8.80766     10.00592        -0.056161     -0.040276      0.001372
      9.86411      7.54717     10.00673         0.098163      0.084162      0.001466
     11.99099      8.76675     10.00526        -0.000416     -0.042107      0.000562
     11.29498     10.02789     10.00506        -0.105861     -0.005605     -0.000873
      9.17720     11.29505     10.00356        -0.035918      0.045979      0.000219
      9.88345     10.04627     10.00456         0.088141     -0.012798     -0.000408
     11.98289     11.28239     10.00530         0.072497      0.009130     -0.001497
      2.81390      4.93355     10.00702         0.058186     -0.158477      0.001978
      2.89120      7.52170     10.00661         0.196350      0.240075      0.002085
      4.97099      3.74698     10.01171        -0.669180     -0.542733     -0.007474
      5.66643      7.50947     10.01028         0.319238      0.373394     -0.001677
      7.65298      3.69712     10.01207         0.507689     -0.787067     -0.008164
      7.76411      6.40910     10.01281         0.641127      0.564311     -0.006915
      4.16958      6.11570     10.00767        -1.013755      0.167865      0.005005
      6.34439      5.18349     10.01495         0.796662      0.014270     -0.007126
    total drift:                                0.000228     -0.002381      0.000605

  FREE ENERGIE OF THE ION-ELECTRON SYSTEM (eV)
  free  energy   TOTEN  =      -604.26167207 eV

  energy  without entropy=     -604.26167207  energy(sigma->0) =     -604.26167207

 stress matrix after NEB project (eV)
    -14.35523      9.97647      0.00786
      9.97670    -54.47415     -0.00169
      0.00787     -0.00170     -0.29761
  FORCES: max atom, RMS     1.027571    0.327819
  FORCE total and by dimension    2.496598    1.013755
  Stress total and by dimension   58.074601   54.474155
 writing wavefunctions

 total charge

[...]

 magnetization (x)

# of ion       s       p       d       tot
    1       -0.000  -0.001   0.000  -0.001
    2       -0.000  -0.000   0.000  -0.001
    3        0.000   0.001   0.000   0.001
    4        0.000   0.003   0.000   0.003
    5       -0.001  -0.004   0.000  -0.005
    6       -0.000  -0.002   0.000  -0.002
    7        0.000   0.000   0.000   0.000
    8       -0.001   0.001   0.000  -0.000
    9        0.000   0.001   0.000   0.001
   10        0.000   0.001   0.000   0.002
   11       -0.000  -0.000   0.000  -0.000
   12       -0.000   0.000   0.000   0.000
   13       -0.000  -0.001   0.000  -0.002
   14       -0.000  -0.000   0.000  -0.000
   15        0.000   0.000   0.000   0.000
   16        0.000   0.001   0.000   0.001
   17        0.000   0.000   0.000   0.000
   18       -0.000   0.000   0.000   0.000
   19       -0.000  -0.002   0.000  -0.002
   20        0.000   0.001   0.000   0.001
   21       -0.000   0.000   0.000   0.000
   22       -0.001  -0.005   0.000  -0.005
   23       -0.000   0.006   0.000   0.006
   24        0.001   0.000   0.000   0.001
   25       -0.000   0.003   0.000   0.003
   26        0.000  -0.000   0.000  -0.000
   27        0.000   0.001   0.000   0.001
   28       -0.000  -0.000   0.000  -0.000
   29       -0.000  -0.002   0.000  -0.002
   30       -0.000   0.000   0.000   0.000
   31       -0.000  -0.001   0.000  -0.001
   32       -0.000  -0.003   0.000  -0.003
   33        0.000   0.001   0.000   0.001
   34        0.000   0.000   0.000   0.000
   35       -0.000  -0.000   0.000  -0.001
   36       -0.000  -0.003   0.000  -0.003
   37       -0.000   0.000   0.000   0.000
   38        0.000   0.002   0.000   0.002
   39       -0.000  -0.001   0.000  -0.001
   40        0.000   0.003   0.000   0.003
   41        0.000   0.002   0.000   0.002
   42       -0.000   0.000   0.000   0.000
   43        0.000   0.001   0.000   0.001
   44       -0.000  -0.000   0.000  -0.000
   45       -0.000  -0.002   0.000  -0.002
   46       -0.000   0.000   0.000  -0.000
   47       -0.000   0.000   0.000   0.000
   48       -0.000  -0.001   0.000  -0.001
   49        0.000   0.000   0.000   0.000
   50        0.000   0.000   0.000   0.000
   51       -0.002  -0.010   0.000  -0.011
   52       -0.002  -0.005   0.000  -0.007
   53       -0.006  -0.025   0.000  -0.031
   54       -0.005  -0.018   0.000  -0.023
   55       -0.005  -0.021   0.000  -0.026
   56       -0.004  -0.022   0.000  -0.027
   57       -0.003  -0.011   0.039   0.025
   58        0.041   0.013   1.953   2.007
tot          0.010  -0.096   1.992   1.906