 vasp.5.4.4.18Apr17-6-g9f103f2a35 (build Feb 25 2019 10:51:38) complex

 executed on             LinuxIFC date 2022.02.08  14:53:42

 INCAR:
 POTCAR:    PAW_PBE C 08Apr2002
 POTCAR:    PAW_PBE N 08Apr2002
 POTCAR:    PAW_PBE Cu 22Jun2005
 POTCAR:    PAW_PBE Fe 06Sep2000

 POTCAR:    PAW_PBE C 08Apr2002
   VRHFIN =C: s2p2

   TITEL  = PAW_PBE C 08Apr2002
   POMASS =   12.011; ZVAL   =    4.000    mass and valenz
   ENMAX  =  400.000; ENMIN  =  300.000 eV

 POTCAR:    PAW_PBE N 08Apr2002
   VRHFIN =N: s2p3

   TITEL  = PAW_PBE N 08Apr2002
   POMASS =   14.001; ZVAL   =    5.000    mass and valenz
   ENMAX  =  400.000; ENMIN  =  300.000 eV

 POTCAR:    PAW_PBE Cu 22Jun2005
   VRHFIN =Cu: d10 p1

   TITEL  = PAW_PBE Cu 22Jun2005
   POMASS =   63.546; ZVAL   =   11.000    mass and valenz
   ENMAX  =  295.446; ENMIN  =  221.585 eV

 POTCAR:    PAW_PBE Fe 06Sep2000
   VRHFIN =Fe:  d7 s1

   TITEL  = PAW_PBE Fe 06Sep2000
   POMASS =   55.847; ZVAL   =    8.000    mass and valenz
   ENMAX  =  267.882; ENMIN  =  200.911 eV

  PAW_PBE C 08Apr2002                   :
  PAW_PBE N 08Apr2002                   :
  PAW_PBE Cu 22Jun2005                  :
  PAW_PBE Fe 06Sep2000                  :

 POSCAR:  C  N Cu Fe
  positions in cartesian coordinates
 exchange correlation table for  LEXCH =        8
   RHO(1)=    0.500       N(1)  =     2000
   RHO(2)=  100.500       N(2)  =     4000

 VTST: version 3.2, (02/03/18)

 CHAIN: initializing optimizer

 OPT: Using VASP Conjugate-Gradient optimizer
 CHAIN: Read ICHAIN            0

 POSCAR:  C  N Cu Fe
  positions in cartesian coordinates

 ion  position               nearest neighbor table
   1  0.220  0.999  0.500-   3 1.42   4 1.43  20 1.43
   2  0.055  0.100  0.500-  34 1.42   7 1.44   3 1.44
   3  0.109  1.000  0.500-   1 1.42  18 1.44   2 1.44
   4  0.276  0.099  0.500-  22 1.42   5 1.42   1 1.43
   5  0.222  0.199  0.500-   4 1.42   7 1.43   8 1.44
   6  0.056  0.300  0.500-  38 1.43   7 1.43  11 1.44
   7  0.111  0.200  0.500-   5 1.43   6 1.43   2 1.44
   8  0.282  0.297  0.500-  55 1.37   5 1.44   9 1.45
   9  0.225  0.398  0.500-  11 1.43  12 1.45   8 1.45
  10  0.056  0.499  0.500-  42 1.43  15 1.44  11 1.44
  11  0.113  0.399  0.500-   9 1.43   6 1.44  10 1.44
  12  0.280  0.500  0.500-  56 1.33   9 1.45  13 1.45
  13  0.224  0.601  0.500-  15 1.42  16 1.45  12 1.45
  14  0.055  0.700  0.500-  46 1.42  19 1.44  15 1.45
  15  0.112  0.600  0.500-  13 1.42  10 1.44  14 1.45
  16  0.282  0.700  0.500-  53 1.42  13 1.45  17 1.45
  17  0.223  0.800  0.500-  20 1.43  19 1.43  16 1.45
  18  0.055  0.899  0.500-  50 1.43   3 1.44  19 1.44
  19  0.111  0.800  0.500-  17 1.43  14 1.44  18 1.44
  20  0.277  0.900  0.500-  28 1.42  17 1.43   1 1.43
  21  0.555  0.001  0.500-  23 1.42  24 1.42  30 1.43
  22  0.387  0.098  0.500-  26 1.41   4 1.42  23 1.42
  23  0.444  0.000  0.500-  21 1.42  22 1.42  28 1.42
  24  0.610  0.100  0.500-  32 1.42  21 1.42  25 1.43
  25  0.554  0.198  0.500-  51 1.42  24 1.43  26 1.44
  26  0.441  0.196  0.500-  55 1.37  22 1.41  25 1.44
  27  0.556  0.804  0.500-  30 1.41  54 1.43  29 1.43
  28  0.388  0.902  0.500-  29 1.41  20 1.42  23 1.42
  29  0.444  0.805  0.500-  28 1.41  53 1.41  27 1.43
  30  0.611  0.901  0.500-  27 1.41  48 1.42  21 1.43
  31  0.888  0.000  0.500-  33 1.42  50 1.44  34 1.44
  32  0.722  0.100  0.500-  24 1.42  37 1.43  33 1.44
  33  0.778  0.000  0.500-  31 1.42  48 1.43  32 1.44
  34  0.943  0.100  0.500-   2 1.42  35 1.44  31 1.44
  35  0.888  0.200  0.500-  37 1.43  34 1.44  38 1.44
  36  0.718  0.300  0.500-  51 1.41  37 1.45  41 1.45
  37  0.776  0.200  0.500-  32 1.43  35 1.43  36 1.45
  38  0.944  0.300  0.500-   6 1.43  35 1.44  39 1.44
  39  0.887  0.400  0.500-  41 1.42  38 1.44  42 1.44
  40  0.720  0.500  0.500-  52 1.39  41 1.44  45 1.45
  41  0.776  0.400  0.500-  39 1.42  40 1.44  36 1.45
  42  0.944  0.500  0.500-  10 1.43  43 1.44  39 1.44
  43  0.888  0.600  0.500-  45 1.42  46 1.44  42 1.44
  44  0.717  0.700  0.500-  54 1.43  45 1.45  49 1.45
  45  0.776  0.601  0.500-  43 1.42  40 1.45  44 1.45
  46  0.944  0.700  0.500-  14 1.42  47 1.44  43 1.44
  47  0.887  0.800  0.500-  49 1.43  50 1.44  46 1.44
  48  0.722  0.901  0.500-  30 1.42  49 1.43  33 1.43
  49  0.776  0.800  0.500-  48 1.43  47 1.43  44 1.45
  50  0.943  0.899  0.500-  18 1.43  47 1.44  31 1.44
  51  0.607  0.298  0.500-  36 1.41  25 1.42  57 1.93
  52  0.612  0.507  0.500-  40 1.39  58 1.77  57 1.99
  53  0.394  0.704  0.500-  29 1.41  16 1.42  58 1.97
  54  0.605  0.701  0.500-  27 1.43  44 1.43  58 2.01
  55  0.389  0.292  0.500-  26 1.37   8 1.37  57 1.93
  56  0.384  0.506  0.500-  12 1.33  58 1.74  57 1.92
  57  0.495  0.402  0.500-  56 1.92  55 1.93  51 1.93  52 1.99  58 2.29
  58  0.496  0.585  0.500-  56 1.74  52 1.77  53 1.97  54 2.01  57 2.29

  LATTYP: Found a triclinic cell.
 ALAT       =    17.8442704266
 B/A-ratio  =     0.6996643573
 C/A-ratio  =     1.1161397762
 COS(alpha) =     0.0002042035
 COS(beta)  =     0.0003178203
 COS(gamma) =     0.6981248305

  Lattice vectors:

 A1 = ( -12.7492542039,  12.4849711375,   0.0000000000)
 A2 = (   0.0268457961,  12.4849711375,   0.0000000000)
 A3 = (  -0.0048665678,   0.0040775340, -19.9166989880)

Analysis of symmetry for initial positions (statically):
 Subroutine PRICEL returns:
 Original cell was already a primitive cell.

 Routine SETGRP: Setting up the symmetry group for a
 triclinic supercell.

 Subroutine GETGRP returns: Found  1 space group operations
 (whereof  1 operations were pure point group operations)
 out of a pool of  2 trial point group operations.

The static configuration has the point symmetry C_1 .

Analysis of symmetry for dynamics (positions and initial velocities):
 Subroutine PRICEL returns:
 Original cell was already a primitive cell.

[...]

The dynamic configuration has the point symmetry C_1 .

Analysis of structural, dynamic, and magnetic symmetry:
 Subroutine PRICEL returns:
 Original cell was already a primitive cell.

 Routine SETGRP: Setting up the symmetry group for a
 triclinic supercell.

 Subroutine GETGRP returns: Found  1 space group operations
 (whereof  1 operations were pure point group operations)
 out of a pool of  2 trial point group operations.

The magnetic configuration has the point symmetry C_1 .

 Subroutine INISYM returns: Found  1 space group operations
 (whereof  1 operations are pure point group operations),
 and found     1 'primitive' translations

 KPOINTS: KPOINTS created by Atomic Simulation Env

Automatic generation of k-mesh.
Space group operators:
 irot       det(A)        alpha          n_x          n_y          n_z        tau_x        tau_y        tau_z
    1     1.000000     0.000001     1.000000     0.000000     0.000000     0.000000     0.000000     0.000000

 Subroutine IBZKPT returns following result:

 Found      1 irreducible k-points:

 Following reciprocal coordinates:
            Coordinates               Weight
  0.000000  0.000000  0.000000      1.000000

 Following cartesian coordinates:
            Coordinates               Weight
  0.000000  0.000000  0.000000      1.000000

 Subroutine IBZKPT_HF returns following result:

 Found      1 k-points in 1st BZ
 the following      1 k-points will be used (e.g. in the exchange kernel)
 Following reciprocal coordinates:   # in IRBZ
  0.000000  0.000000  0.000000    1.00000000   1 t-inv F

 SYSTEM =  unknown system
 POSCAR =   C  N Cu Fe

 Startparameter for this run:
   NWRITE =      2    write-flag & timer
   PREC   = accura    normal or accurate (medium, high low for compatibility)
   ISTART =      1    job   : 0-new  1-cont  2-samecut
   ICHARG =      0    charge: 1-file 2-atom 10-const
   ISPIN  =      2    spin polarized calculation?
   LNONCOLLINEAR =      F non collinear calculations
   LSORBIT =      F    spin-orbit coupling
   INIWAV =      1    electr: 0-lowe 1-rand  2-diag
   LASPH  =      T    aspherical Exc in radial PAW
   METAGGA=      F    non-selfconsistent MetaGGA calc.

 Electronic Relaxation 1
   ENCUT  =  500.0 eV  36.75 Ry    6.06 a.u.  23.29 22.76 36.31*2*pi/ulx,y,z
   ENINI  =  500.0     initial cutoff
   ENAUG  =  644.9 eV  augmentation charge cutoff
   NELM   =    250;   NELMIN=  2; NELMDL=  0     # of ELM steps
   EDIFF  = 0.1E-03   stopping-criterion for ELM
   LREAL  =      F    real-space projection
   NLSPLINE    = F    spline interpolate recip. space projectors
   LCOMPAT=      F    compatible to vasp.4.4
   GGA_COMPAT  = T    GGA compatible to vasp.4.4-vasp.4.6
   LMAXPAW     = -100 max onsite density
   LMAXMIX     =    2 max onsite mixed and CHGCAR
   VOSKOWN=      0    Vosko Wilk Nusair interpolation
   ROPT   =    0.00000   0.00000   0.00000   0.00000
 Ionic relaxation
   EDIFFG = -.3E-01   stopping-criterion for IOM
   NSW    =      0    number of steps for IOM
   NBLOCK =      1;   KBLOCK =      1    inner block; outer block
   IBRION =     -1    ionic relax: 0-MD 1-quasi-New 2-CG
   NFREE  =      1    steps in history (QN), initial steepest desc. (CG)
   ISIF   =      2    stress and relaxation
   IWAVPR =     10    prediction:  0-non 1-charg 2-wave 3-comb
   ISYM   =      3    0-nonsym 1-usesym 2-fastsym
   LCORR  =      T    Harris-Foulkes like correction to forces

   POTIM  = 0.5000    time-step for ionic-motion
   TEIN   =    0.0    initial temperature
   TEBEG  =    0.0;   TEEND  =   0.0 temperature during run
   SMASS  =  -3.00    Nose mass-parameter (am)
   estimated Nose-frequenzy (Omega)   =  0.10E-29 period in steps =****** mass=  -0.373E-26a.u.
   SCALEE = 1.0000    scale energy and forces
   NPACO  =    256;   APACO  = 16.0  distance and # of slots for P.C.
   PSTRESS=    0.0 pullay stress

  Mass of Ions in am
   POMASS =  12.01 14.00 63.55 55.85
  Ionic Valenz
   ZVAL   =   4.00  5.00 11.00  8.00
  Atomic Wigner-Seitz radii
  virtual crystal weights
   VCA    =   1.00  1.00  1.00  1.00
   NELECT =     245.0000    total number of electrons
   NUPDOWN=      -1.0000    fix difference up-down

 DOS related values:
   EMIN   =  10.00;   EMAX   =-10.00  energy-range for DOS
   EFERMI =   0.00
   ISMEAR =     0;   SIGMA  =   0.10  broadening in eV -4-tet -1-fermi 0-gaus

 Electronic relaxation 2 (details)
   IALGO  =     53    algorithm
   LDIAG  =      T    sub-space diagonalisation (order eigenvalues)
   LSUBROT=      F    optimize rotation matrix (better conditioning)
   TURBO    =      0    0=normal 1=particle mesh
   IRESTART =      0    0=no restart 2=restart with 2 vectors
   NREBOOT  =      0    no. of reboots
   NMIN     =      0    reboot dimension
   EREF     =   0.00    reference energy to select bands
   IMIX   =      4    mixing-type and parameters
     AMIX     =   0.40;   BMIX     =  1.00
     AMIX_MAG =   1.60;   BMIX_MAG =  1.00
     AMIN     =   0.10
     WC   =   100.;   INIMIX=   1;  MIXPRE=   1;  MAXMIX= -45

 Intra band minimization:
   WEIMIN = 0.0000     energy-eigenvalue tresh-hold
   EBREAK =  0.16E-06  absolut break condition
   DEPER  =   0.30     relativ break condition

   TIME   =   0.20     timestep for ELM

  volume/ion in A,a.u.               =      54.77       369.63
  Fermi-wavevector in a.u.,A,eV,Ry     =   0.696834  1.316825  6.606678  0.485577
[...]
   33        0.866   1.765   0.000   2.631
   34        0.865   1.756   0.000   2.621
   35        0.861   1.761   0.000   2.622
   36        0.860   1.747   0.000   2.606
   37        0.863   1.748   0.000   2.610
   38        0.862   1.754   0.000   2.617
   39        0.861   1.756   0.000   2.618
   40        0.866   1.781   0.000   2.647
   41        0.865   1.741   0.000   2.605
   42        0.861   1.741   0.000   2.601
   43        0.861   1.755   0.000   2.616
   44        0.859   1.740   0.000   2.599
   45        0.865   1.731   0.000   2.596
   46        0.864   1.754   0.000   2.617
   47        0.863   1.757   0.000   2.620
   48        0.866   1.776   0.000   2.642
   49        0.864   1.748   0.000   2.612
   50        0.864   1.759   0.000   2.622
   51        0.864   1.653   0.000   2.517
   52        0.914   1.505   0.000   2.419
   53        0.872   1.654   0.000   2.526
   54        0.867   1.628   0.000   2.495
   55        1.228   2.665   0.000   3.893
   56        1.261   2.561   0.000   3.823
   57        0.497   0.604   9.126  10.227
   58        0.557   0.853   6.394   7.804
tot         50.301 101.078  15.520 166.899

 magnetization (x)

[...]

  FORCE on cell =-STRESS in cart. coord.  units (eV):
  Direction    XX          YY          ZZ          XY          YZ          ZX
  Alpha Z   100.63722   100.63722   100.63722
  Ewald   47914.23467 47758.44212-56508.95874     0.46100    -1.05175    -0.50780
  Hartree 47330.48004 47380.03441-46630.60501     3.55003    -0.53495    -0.35742
  E(xc)    -718.75202  -719.36902  -732.86461     0.03279    -0.00742    -0.00118
  Local  -97842.14701-97772.45997100046.18379    -6.17198     1.44966     0.83477
  n-local   -62.37107   -56.55416   -41.60958    -0.81422     0.03117    -0.00930
  augment    95.63501    99.44748   110.32696     0.26232     0.04277     0.00168
  Kinetic  3523.13777  3561.94748  4036.46378     2.84112     0.08970     0.03768
  Fock     -387.38144  -392.27696  -379.91801    -0.52863    -0.01705     0.00300
  Total     -46.52683   -40.15139    -0.34421    -0.36758     0.00215     0.00143
  in kB     -23.46448   -20.24920    -0.17359    -0.18538     0.00108     0.00072

 VOLUME and BASIS-vectors are now :
  energy-cutoff  :      500.00
  volume of cell :     3176.90
      direct lattice vectors                 reciprocal lattice vectors
    12.776100000  0.000000000  0.000000000     0.078271147 -0.000168302 -0.000019160
     0.026845796 12.484971137  0.000000000     0.000000000  0.080096301  0.000016398
     0.004866568 -0.004077534 19.916698988     0.000000000  0.000000000  0.050209124

  length of vectors
    12.776100000 12.485000000 19.916700000     0.078271330  0.080096302  0.050209124

 FORCES acting on ions:
    Electron-Ion                     Ewald-Force                    Non-Local-Force
   0.482E+01 0.476E+01 -.214E+00   -.516E+01 -.539E+01 0.215E+00   0.254E+00 0.595E+00 -.796E-04
   0.206E+01 0.175E+01 -.218E+00   -.217E+01 -.162E+01 0.218E+00   0.152E+00 -.241E-01 -.741E-03
   0.107E+02 0.261E+01 -.156E+00   -.108E+02 -.269E+01 0.156E+00   0.181E+00 0.824E-01 0.566E-03
   0.156E+02 0.134E+02 -.162E+00   -.159E+02 -.137E+02 0.163E+00   0.281E+00 0.345E+00 -.308E-03
   0.207E+02 0.384E+01 -.876E-01   -.216E+02 -.413E+01 0.888E-01   0.765E+00 0.242E+00 -.940E-03
   0.509E+01 -.327E+01 -.248E+00   -.540E+01 0.332E+01 0.248E+00   0.297E+00 -.124E-01 -.960E-03
   0.108E+02 0.194E+01 -.208E+00   -.114E+02 -.185E+01 0.208E+00   0.480E+00 -.159E+00 -.887E-03
   0.599E+02 -.695E+00 0.155E+00   -.637E+02 0.920E+00 -.151E+00   0.407E+01 -.368E+00 -.432E-02
   0.261E+02 -.144E+00 0.132E+00   -.268E+02 0.301E+00 -.131E+00   0.505E+00 0.111E-01 -.104E-03
   0.504E+01 -.163E+01 -.273E+00   -.545E+01 0.170E+01 0.272E+00   0.106E+00 -.544E-01 -.287E-03
   0.134E+02 -.202E+01 -.163E+00   -.137E+02 0.201E+01 0.164E+00   0.338E+00 -.982E-01 -.135E-02
   0.723E+02 -.502E+01 0.194E+00   -.767E+02 0.523E+01 -.187E+00   0.431E+01 -.135E+00 -.705E-02
   0.156E+02 -.123E+02 -.750E-01   -.156E+02 0.134E+02 0.744E-01   -.187E+00 -.133E+01 0.132E-02
   0.917E+00 0.675E+00 -.251E+00   -.112E+01 -.747E+00 0.252E+00   0.157E+00 0.189E-01 -.292E-03
   0.125E+02 -.330E+01 -.272E+00   -.123E+02 0.324E+01 0.272E+00   0.515E-01 0.761E-01 -.199E-02
   0.126E+02 -.644E+01 -.216E+00   -.109E+02 0.652E+01 0.214E+00   -.144E+01 0.371E-01 0.217E-02
   0.617E+01 0.404E+01 -.255E+00   -.559E+01 -.444E+01 0.256E+00   -.388E+00 0.543E+00 -.437E-03
   0.620E+00 0.210E+01 -.133E+00   -.848E+00 -.222E+01 0.134E+00   0.201E+00 0.816E-01 -.132E-04
   0.543E+01 0.861E+00 -.174E+00   -.532E+01 -.842E+00 0.174E+00   -.213E+00 0.571E-01 0.718E-03
   0.894E+01 0.192E+01 -.330E+00   -.888E+01 -.241E+01 0.329E+00   -.116E+00 0.333E+00 0.410E-03
   -.803E+01 0.654E+01 -.374E+00   0.808E+01 -.694E+01 0.374E+00   -.250E+00 0.292E+00 0.782E-03
   0.673E+01 0.238E+02 -.212E+00   -.636E+01 -.243E+02 0.213E+00   -.187E+00 0.786E+00 -.173E-02
   0.572E+00 0.833E+01 -.440E+00   -.309E-03 -.901E+01 0.440E+00   -.362E+00 0.522E+00 -.205E-02
   -.114E+02 0.104E+02 -.197E+00   0.113E+02 -.103E+02 0.197E+00   -.678E-01 0.130E+00 -.247E-02
   -.227E+02 0.314E+02 0.187E+00   0.238E+02 -.308E+02 -.188E+00   -.852E+00 -.649E+00 0.151E-02
   -.136E+02 0.569E+02 0.881E-01   0.159E+02 -.603E+02 -.831E-01   -.259E+01 0.325E+01 -.537E-02
   -.953E+01 -.168E+01 -.422E+00   0.100E+02 0.554E+00 0.419E+00   -.263E+00 0.121E+01 0.199E-02
   0.568E+01 -.122E+01 -.460E+00   -.547E+01 0.674E+00 0.462E+00   -.147E+00 0.457E+00 -.133E-02
   0.146E+01 -.517E+01 -.485E+00   -.156E+01 0.406E+01 0.485E+00   -.106E+00 0.114E+01 -.124E-03
   -.692E+01 -.108E+01 -.472E+00   0.678E+01 0.448E+00 0.475E+00   0.215E-01 0.469E+00 -.427E-02
   -.734E+01 0.130E+01 -.160E+00   0.718E+01 -.137E+01 0.159E+00   0.607E-01 0.918E-01 0.845E-03
   -.125E+02 0.585E+01 -.166E+00   0.128E+02 -.564E+01 0.165E+00   -.140E+00 -.686E-01 0.244E-03
   -.173E+01 0.642E+00 -.217E+00   0.185E+01 -.869E+00 0.218E+00   -.194E-01 0.200E+00 -.682E-03
   0.296E+01 0.139E+01 -.219E+00   -.319E+01 -.129E+01 0.219E+00   0.185E+00 -.455E-01 -.535E-03
   -.329E+01 -.469E+00 -.202E+00   0.322E+01 0.567E+00 0.202E+00   0.122E+00 -.875E-01 -.497E-03
   -.241E+02 -.235E+01 0.212E+00   0.234E+02 0.235E+01 -.211E+00   0.494E+00 -.737E-01 -.983E-03
   -.924E+01 -.210E+01 -.673E-01   0.916E+01 0.219E+01 0.680E-01   0.324E-01 -.222E+00 -.732E-03
   0.221E+01 -.160E+01 -.239E+00   -.229E+01 0.154E+01 0.239E+00   0.617E-01 0.265E-01 -.524E-03
   -.679E+01 -.183E+01 -.142E+00   0.652E+01 0.171E+01 0.142E+00   0.406E-01 0.183E-01 -.352E-03
   -.246E+02 -.249E+01 0.212E+00   0.253E+02 0.231E+01 -.213E+00   -.816E+00 0.319E+00 0.272E-02
   -.799E+01 0.123E+01 0.127E+00   0.802E+01 -.179E+01 -.126E+00   0.213E+00 0.539E+00 -.655E-04
   0.106E+01 -.162E+01 -.263E+00   -.809E+00 0.166E+01 0.262E+00   0.651E-01 -.122E-02 -.138E-02
   -.542E+01 -.118E+01 -.189E+00   0.513E+01 0.125E+01 0.188E+00   0.103E+00 -.183E-02 0.319E-03
   -.840E+01 0.419E+00 -.761E-01   0.665E+01 -.323E+00 0.739E-01   0.149E+01 -.150E-01 0.326E-02
   -.428E+01 -.587E+01 -.166E-01   0.411E+01 0.674E+01 0.156E-01   0.362E+00 -.966E+00 0.295E-03
   0.277E+01 0.753E+00 -.248E+00   -.283E+01 -.734E+00 0.248E+00   0.603E-01 -.384E-01 -.128E-02
   -.247E+01 0.195E+01 -.188E+00   0.230E+01 -.188E+01 0.188E+00   0.337E+00 0.336E-01 0.881E-03
   -.953E+01 0.138E+01 -.272E+00   0.960E+01 -.170E+01 0.269E+00   0.495E-01 0.184E+00 0.290E-02
   -.342E+01 0.602E+01 -.272E+00   0.289E+01 -.632E+01 0.273E+00   0.379E+00 0.495E+00 -.298E-02
   0.234E+01 0.140E+01 -.137E+00   -.248E+01 -.158E+01 0.138E+00   0.124E+00 0.556E-01 -.165E-04
   -.495E+02 -.306E+01 0.577E+00   0.483E+02 0.634E+01 -.586E+00   0.136E+01 -.321E+01 0.120E-01
   -.685E+02 -.164E+02 0.539E+00   0.646E+02 0.193E+02 -.558E+00   0.435E+01 -.321E+01 0.177E-01
   0.955E+00 0.963E+01 -.426E+00   0.238E+01 -.148E+02 0.420E+00   -.365E+01 0.503E+01 0.116E-02
   -.481E+01 0.216E+02 -.138E+00   0.152E+01 -.266E+02 0.129E+00   0.366E+01 0.509E+01 0.452E-02
   0.451E+02 0.101E+02 0.617E+00   -.359E+02 0.503E+01 -.657E+00   -.875E+01 -.142E+02 0.398E-01
   0.764E+02 -.358E+02 0.146E+01   -.630E+02 0.387E+02 -.152E+01   -.125E+02 -.281E+01 0.585E-01
   -.718E+02 0.520E+02 0.247E+01   0.763E+02 -.565E+02 -.246E+01   -.490E+01 0.374E+01 -.855E-02
   -.460E+02 -.161E+03 0.311E+01   0.460E+02 0.171E+03 -.304E+01   -.570E+00 -.844E+01 -.579E-01
   0.138E+02 0.111E+02 -.513E-01   -.497E-13 0.000E+00 0.178E-14   -.128E+02 -.968E+01 0.412E-01

 POSITION                                       TOTAL-FORCE (eV/Angst)
      2.84374     12.47353      9.95877        -0.076034     -0.003142      0.000902
      0.70484      1.24993      9.95874         0.045547      0.111422     -0.000682
      1.42769     12.47829      9.95875         0.081647      0.005524      0.000140
      3.52900      1.22927      9.95814        -0.060270      0.058580     -0.000303
      2.84957      2.48154      9.95756        -0.013822     -0.047836      0.000156
      0.71991      3.74383      9.95834        -0.005036      0.038238     -0.001025
      1.42094      2.49517      9.95834        -0.055250     -0.073431     -0.000612
      3.60884      3.71084      9.95596         0.475802     -0.167905     -0.000178
      2.89345      4.97134      9.95617        -0.176883      0.172066      0.000686
      0.73582      6.23372      9.95833        -0.309448      0.014816     -0.001566
      1.45938      4.98371      9.95775         0.098092     -0.113886     -0.000454
      3.59881      6.23705      9.95514         0.203734      0.070791     -0.000505
      2.87834      7.49963      9.95717        -0.232187     -0.256913      0.000780
      0.72963      8.73416      9.95876        -0.041385     -0.049095      0.000126
      1.45564      7.48454      9.95833         0.252204      0.021889     -0.001916
      3.62649      8.73904      9.95793         0.234206      0.124633     -0.000436
      2.87655      9.98154      9.95876         0.168686      0.170720      0.000818
      0.72741     11.22410      9.95876        -0.022057     -0.031851      0.000563
      1.44570      9.97971      9.95875        -0.109163      0.077826      0.000419
      3.55973     11.23477      9.95913        -0.065625     -0.144629     -0.001065
      7.09149      0.00491      9.95898        -0.211401     -0.089150      0.000954
      4.94938      1.22175      9.95796         0.181514      0.325894     -0.000744
      5.67497      0.00007      9.95911         0.192022     -0.131603     -0.001954
      7.80054      1.24070      9.95792        -0.184188      0.260343     -0.002131
      7.08214      2.47493      9.95598         0.232161     -0.094793      0.000891
      5.64456      2.44488      9.95614        -0.368691     -0.031787     -0.000634
      7.12324     10.03170      9.95875         0.223534      0.142192     -0.000697
      4.98246     11.25662      9.95937         0.064258     -0.075651      0.000332
      5.69613     10.04253      9.95895        -0.218570      0.080702     -0.000717
      7.83398     11.25314      9.95932        -0.119694     -0.148693     -0.001603
     11.35329     -0.00176      9.95875        -0.108930      0.025791      0.000176
      9.22346      1.25081      9.95815         0.126581      0.136588     -0.000481
      9.93662     -0.00006      9.95875         0.110511     -0.018392      0.000292
     12.05705      1.25227      9.95874        -0.036888      0.059705     -0.000589
     11.34960      2.50102      9.95834         0.054827      0.006268     -0.000597
      9.17809      3.74874      9.95595        -0.232486     -0.081125     -0.000232
      9.91677      2.50028      9.95755        -0.043523     -0.146848     -0.000100
     12.06906      3.74492      9.95833        -0.004351     -0.034723     -0.001056
     11.34885      4.99277      9.95776        -0.239613     -0.096313     -0.000162
      9.21680      6.24196      9.95560        -0.147466      0.163866      0.002127
      9.92625      4.99167      9.95636         0.253888      0.004829      0.000666
     12.07845      6.23822      9.95832         0.319867      0.043522     -0.002021
     11.35759      7.48846      9.95817        -0.191690      0.070345      0.000091
      9.18264      8.74084      9.95758        -0.190010      0.080948      0.001182
      9.93308      7.50076      9.95713         0.216114     -0.149448     -0.000689
     12.08146      8.73600      9.95873         0.007288     -0.021154     -0.000873
     11.36242      9.98062      9.95876         0.184371      0.114541      0.000284
      9.25445     11.24142      9.95897         0.114635     -0.132098      0.000583
      9.93191      9.98289      9.95872        -0.135725      0.225409     -0.001324
     12.07777     11.22581      9.95876        -0.010079     -0.122115      0.000786
      7.76813      3.71632      9.95440         0.229514     -0.098012      0.003529
      7.83436      6.33252      9.95360         0.663068     -0.411206     -0.001004
      5.04933      8.78554      9.95777        -0.506319      0.122245     -0.004096
      7.75485      8.75241      9.95712         0.562340      0.286639     -0.004702
      4.98082      3.64536      9.95459        -0.297611     -0.260020      0.003315
      4.92479      6.31846      9.95219        -0.241594     -0.207565     -0.000872
      6.34020      5.01514      9.95241        -0.294528     -0.359299      0.003864
      6.35807      7.30736      9.95133        -0.345892      0.582349      0.012362
    total drift:                               -0.009238     -0.001340      0.000730

  FREE ENERGIE OF THE ION-ELECTRON SYSTEM (eV)
  free  energy   TOTEN  =      -599.19924624 eV

  energy  without entropy=     -599.19924624  energy(sigma->0) =     -599.19924624

 stress matrix after NEB project (eV)
    -46.52683     -0.36758      0.00143
     -0.36758    -40.15139      0.00285
      0.00140      0.00215     -0.34421
  FORCES: max atom, RMS     0.780225    0.282605
  FORCE total and by dimension    2.152257    0.663068
  Stress total and by dimension   61.459489   46.526835
 writing wavefunctions

 total charge

[...]

 magnetization (x)

# of ion       s       p       d       tot
    1        0.000   0.003   0.000   0.004
    2        0.001   0.007   0.000   0.008
    3       -0.001  -0.008   0.000  -0.008
    4       -0.000  -0.005   0.000  -0.005
    5        0.000   0.005   0.000   0.006
    6        0.001   0.008   0.000   0.009
    7       -0.000  -0.005   0.000  -0.006
    8       -0.000  -0.006   0.000  -0.006
    9       -0.000  -0.000   0.000  -0.000
   10        0.001   0.010   0.000   0.011
   11       -0.001  -0.016   0.000  -0.017
   12        0.001  -0.003   0.000  -0.002
   13       -0.000  -0.006   0.000  -0.006
   14        0.001   0.006   0.000   0.006
   15       -0.001  -0.009   0.000  -0.010
   16        0.000  -0.004   0.000  -0.004
   17       -0.000   0.003   0.000   0.002
   18        0.001   0.008   0.000   0.008
   19       -0.000  -0.004   0.000  -0.004
   20       -0.000  -0.001   0.000  -0.001
   21        0.001   0.010   0.000   0.011
   22        0.001   0.005   0.000   0.006
   23       -0.002  -0.027   0.000  -0.029
   24       -0.001  -0.013   0.000  -0.014
   25        0.001   0.013   0.000   0.015
   26       -0.001  -0.009   0.000  -0.010
   27       -0.000   0.017   0.000   0.017
   28        0.000   0.004   0.000   0.004
   29       -0.002  -0.020   0.000  -0.022
   30       -0.002  -0.013   0.000  -0.014
   31        0.001   0.008   0.000   0.008
   32        0.001   0.009   0.000   0.010
   33       -0.001  -0.014   0.000  -0.015
   34       -0.001  -0.009   0.000  -0.010
   35        0.001   0.012   0.000   0.013
   36        0.002   0.019   0.000   0.021
   37       -0.001  -0.007   0.000  -0.008
   38       -0.001  -0.013   0.000  -0.014
   39        0.002   0.017   0.000   0.019
   40        0.005   0.045   0.000   0.049
   41       -0.005  -0.055   0.000  -0.059
   42       -0.002  -0.035   0.000  -0.037
   43        0.002   0.019   0.000   0.021
   44        0.002   0.018   0.000   0.020
   45       -0.004  -0.060   0.000  -0.065
   46       -0.001  -0.014   0.000  -0.015
   47        0.001   0.012   0.000   0.013
   48        0.001   0.011   0.000   0.012
   49       -0.001  -0.010   0.000  -0.011
   50       -0.001  -0.006   0.000  -0.007
   51       -0.000  -0.017   0.000  -0.018
   52       -0.025  -0.215   0.000  -0.240
   53       -0.016  -0.065   0.000  -0.081
   54       -0.016  -0.089   0.000  -0.106
   55       -0.003  -0.008   0.000  -0.011
   56       -0.008  -0.111   0.000  -0.120
   57       -0.003  -0.003  -0.056  -0.062
   58        0.054   0.001   1.951   2.006
tot         -0.024  -0.609   1.895   1.263