 vasp.5.4.4.18Apr17-6-g9f103f2a35 (build Feb 25 2019 10:51:38) complex

 executed on             LinuxIFC date 2021.08.06  13:15:26

 INCAR:
 POTCAR:    PAW_PBE C 08Apr2002
 POTCAR:    PAW_PBE N 08Apr2002
 POTCAR:    PAW_PBE Fe 06Sep2000
 POTCAR:    PAW_PBE Ti 08Apr2002

 POTCAR:    PAW_PBE C 08Apr2002
   VRHFIN =C: s2p2

   TITEL  = PAW_PBE C 08Apr2002
   POMASS =   12.011; ZVAL   =    4.000    mass and valenz
   ENMAX  =  400.000; ENMIN  =  300.000 eV

 POTCAR:    PAW_PBE N 08Apr2002
   VRHFIN =N: s2p3

[...]

 POTCAR:    PAW_PBE Fe 06Sep2000
   VRHFIN =Fe:  d7 s1

   TITEL  = PAW_PBE Fe 06Sep2000
   POMASS =   55.847; ZVAL   =    8.000    mass and valenz
   ENMAX  =  267.882; ENMIN  =  200.911 eV

 POTCAR:    PAW_PBE Ti 08Apr2002
   VRHFIN =Ti: d3 s1

   TITEL  = PAW_PBE Ti 08Apr2002
   POMASS =   47.880; ZVAL   =    4.000    mass and valenz
   ENMAX  =  178.330; ENMIN  =  133.747 eV

  PAW_PBE C 08Apr2002                   :
  PAW_PBE N 08Apr2002                   :
  PAW_PBE Fe 06Sep2000                  :
  PAW_PBE Ti 08Apr2002                  :

 POSCAR:  C  N Fe Ti
  positions in cartesian coordinates
 exchange correlation table for  LEXCH =        8
   RHO(1)=    0.500       N(1)  =     2000
   RHO(2)=  100.500       N(2)  =     4000

 VTST: version 3.2, (02/03/18)

 CHAIN: initializing optimizer

 OPT: Using VASP Conjugate-Gradient optimizer
 CHAIN: Read ICHAIN            0

 POSCAR:  C  N Fe Ti
  positions in cartesian coordinates

 ion  position               nearest neighbor table
   1  0.220  0.001  0.504-   3 1.42  20 1.43   4 1.43
   2  0.055  0.101  0.505-  34 1.43   3 1.44   7 1.44
   3  0.110  0.000  0.505-   1 1.42  18 1.43   2 1.44
   4  0.277  0.100  0.505-  22 1.42   5 1.43   1 1.43
   5  0.224  0.201  0.504-   4 1.43   7 1.43   8 1.45
   6  0.056  0.300  0.503-  38 1.43   7 1.44  11 1.45
   7  0.112  0.200  0.504-   5 1.43   6 1.44   2 1.44
   8  0.283  0.300  0.502-  51 1.43   9 1.45   5 1.45
   9  0.225  0.400  0.500-  11 1.43  12 1.45   8 1.45
  10  0.057  0.500  0.500-  42 1.43  15 1.44  11 1.44
  11  0.113  0.400  0.501-   9 1.43  10 1.44   6 1.45
  12  0.281  0.501  0.493-  55 1.35   9 1.45  13 1.45
  13  0.224  0.601  0.496-  15 1.43  16 1.44  12 1.45
  14  0.055  0.700  0.502-  46 1.43  19 1.43  15 1.44
  15  0.113  0.600  0.499-  13 1.43  10 1.44  14 1.44
  16  0.279  0.703  0.497-  56 1.38  17 1.44  13 1.44
  17  0.221  0.801  0.502-  19 1.43  20 1.43  16 1.44
  18  0.055  0.900  0.504-  50 1.42  19 1.43   3 1.43
  19  0.110  0.800  0.503-  17 1.43  14 1.43  18 1.43
  20  0.276  0.901  0.503-  28 1.43  17 1.43   1 1.43
  21  0.555  0.998  0.502-  23 1.42  30 1.43  24 1.43
  22  0.388  0.098  0.504-  26 1.41   4 1.42  23 1.43
  23  0.444  0.999  0.503-  28 1.42  21 1.42  22 1.43
  24  0.611  0.097  0.503-  25 1.42  32 1.42  21 1.43
  25  0.556  0.196  0.504-  24 1.42  52 1.42  26 1.44
  26  0.444  0.196  0.504-  22 1.41  51 1.41  25 1.44
  27  0.554  0.798  0.497-  54 1.44  30 1.44  29 1.45
  28  0.387  0.901  0.501-  29 1.41  23 1.42  20 1.43
  29  0.441  0.802  0.497-  56 1.37  28 1.41  27 1.45
  30  0.610  0.898  0.499-  21 1.43  48 1.43  27 1.44
  31  0.888  0.999  0.504-  33 1.42  50 1.43  34 1.44
  32  0.722  0.099  0.503-  24 1.42  33 1.43  37 1.43
  33  0.777  0.999  0.503-  31 1.42  32 1.43  48 1.44
  34  0.943  0.100  0.504-   2 1.43  35 1.44  31 1.44
  35  0.888  0.200  0.503-  37 1.43  34 1.44  38 1.44
  36  0.717  0.299  0.501-  52 1.43  37 1.45  41 1.45
  37  0.776  0.200  0.503-  35 1.43  32 1.43  36 1.45
  38  0.944  0.300  0.502-   6 1.43  35 1.44  39 1.44
  39  0.887  0.400  0.500-  41 1.43  42 1.44  38 1.44
  40  0.720  0.500  0.495-  53 1.40  45 1.44  41 1.45
  41  0.776  0.399  0.499-  39 1.43  40 1.45  36 1.45
  42  0.945  0.500  0.500-  10 1.43  43 1.44  39 1.44
  43  0.888  0.599  0.501-  45 1.42  46 1.44  42 1.44
  44  0.719  0.698  0.500-  54 1.42  45 1.44  49 1.44
  45  0.777  0.599  0.499-  43 1.42  40 1.44  44 1.44
  46  0.944  0.699  0.503-  14 1.43  43 1.44  47 1.44
  47  0.888  0.799  0.504-  49 1.43  50 1.43  46 1.44
  48  0.721  0.898  0.502-  30 1.43  49 1.43  33 1.44
  49  0.776  0.799  0.502-  48 1.43  47 1.43  44 1.44
  50  0.943  0.899  0.504-  18 1.42  47 1.43  31 1.43
  51  0.394  0.297  0.504-  26 1.41   8 1.43  57 1.98
  52  0.606  0.298  0.502-  25 1.42  36 1.43  57 2.01
  53  0.612  0.500  0.486-  40 1.40  57 1.83  58 2.11
  54  0.609  0.697  0.496-  44 1.42  27 1.44  58 2.11
  55  0.385  0.501  0.485-  12 1.35  57 1.83  58 1.94
  56  0.387  0.707  0.494-  29 1.37  16 1.38  58 2.05
  57  0.497  0.415  0.500-  53 1.83  55 1.83  51 1.98  52 2.01  58 2.50
  58  0.491  0.600  0.453-  55 1.94  56 2.05  53 2.11  54 2.11  57 2.50

  LATTYP: Found a triclinic cell.
 ALAT       =    12.4586189019
 B/A-ratio  =     1.4314472137
 C/A-ratio  =     1.5989669415
 COS(alpha) =     0.0010787221
 COS(beta)  =     0.0050173930
 COS(gamma) =     0.6962799265

  Lattice vectors:

 A1 = (  -0.0200834954,  12.4585770611,  -0.0252825931)
 A2 = (  12.7805606752,  12.4379922253,  -0.0036880150)
 A3 = (  -0.0336399295,   0.0594712628, -19.9208025850)

Analysis of symmetry for initial positions (statically):
 Subroutine PRICEL returns:
 Original cell was already a primitive cell.

 Routine SETGRP: Setting up the symmetry group for a
 triclinic supercell.

 Subroutine GETGRP returns: Found  1 space group operations
 (whereof  1 operations were pure point group operations)
 out of a pool of  2 trial point group operations.

The static configuration has the point symmetry C_1 .

Analysis of symmetry for dynamics (positions and initial velocities):
 Subroutine PRICEL returns:
 Original cell was already a primitive cell.

[...]

The dynamic configuration has the point symmetry C_1 .

Analysis of structural, dynamic, and magnetic symmetry:
 Subroutine PRICEL returns:
 Original cell was already a primitive cell.

 Routine SETGRP: Setting up the symmetry group for a
 triclinic supercell.

 Subroutine GETGRP returns: Found  1 space group operations
 (whereof  1 operations were pure point group operations)
 out of a pool of  2 trial point group operations.

The magnetic configuration has the point symmetry C_1 .

 Subroutine INISYM returns: Found  1 space group operations
 (whereof  1 operations are pure point group operations),
 and found     1 'primitive' translations

 KPOINTS: KPOINTS created by Atomic Simulation Env

Automatic generation of k-mesh.
Space group operators:
 irot       det(A)        alpha          n_x          n_y          n_z        tau_x        tau_y        tau_z
    1     1.000000     0.000001     1.000000     0.000000     0.000000     0.000000     0.000000     0.000000

 Subroutine IBZKPT returns following result:

 Found      2 irreducible k-points:

 Following reciprocal coordinates:
            Coordinates               Weight
  0.250000  0.250000  0.000000      2.000000
 -0.250000  0.250000  0.000000      2.000000

 Following cartesian coordinates:
            Coordinates               Weight
  0.019563  0.020098  0.000027      2.000000
 -0.019498  0.020035  0.000093      2.000000

 Subroutine IBZKPT_HF returns following result:

 Found      4 k-points in 1st BZ
 the following      4 k-points will be used (e.g. in the exchange kernel)
 Following reciprocal coordinates:   # in IRBZ
  0.250000  0.250000  0.000000    0.25000000   1 t-inv F
 -0.250000  0.250000  0.000000    0.25000000   2 t-inv F
 -0.250000 -0.250000 -0.000000    0.25000000   1 t-inv T
  0.250000 -0.250000 -0.000000    0.25000000   2 t-inv T

 SYSTEM =  unknown system
 POSCAR =   C  N Fe Ti

 Startparameter for this run:
   NWRITE =      2    write-flag & timer
   PREC   = accura    normal or accurate (medium, high low for compatibility)
   ISTART =      1    job   : 0-new  1-cont  2-samecut
   ICHARG =      0    charge: 1-file 2-atom 10-const
   ISPIN  =      2    spin polarized calculation?
   LNONCOLLINEAR =      F non collinear calculations
   LSORBIT =      F    spin-orbit coupling
   INIWAV =      1    electr: 0-lowe 1-rand  2-diag
   LASPH  =      T    aspherical Exc in radial PAW
   METAGGA=      F    non-selfconsistent MetaGGA calc.

 Electronic Relaxation 1
   ENCUT  =  500.0 eV  36.75 Ry    6.06 a.u.  23.34 22.71 36.32*2*pi/ulx,y,z
   ENINI  =  500.0     initial cutoff
   ENAUG  =  644.9 eV  augmentation charge cutoff
   NELM   =    250;   NELMIN=  2; NELMDL=  0     # of ELM steps
   EDIFF  = 0.1E-03   stopping-criterion for ELM
   LREAL  =      F    real-space projection
   NLSPLINE    = F    spline interpolate recip. space projectors
   LCOMPAT=      F    compatible to vasp.4.4
   GGA_COMPAT  = T    GGA compatible to vasp.4.4-vasp.4.6
   LMAXPAW     = -100 max onsite density
   LMAXMIX     =    2 max onsite mixed and CHGCAR
   VOSKOWN=      0    Vosko Wilk Nusair interpolation
   ROPT   =    0.00000   0.00000   0.00000   0.00000
 Ionic relaxation
   EDIFFG = -.3E-01   stopping-criterion for IOM
   NSW    =      0    number of steps for IOM
   NBLOCK =      1;   KBLOCK =      1    inner block; outer block
   IBRION =     -1    ionic relax: 0-MD 1-quasi-New 2-CG
   NFREE  =      1    steps in history (QN), initial steepest desc. (CG)
   ISIF   =      2    stress and relaxation
   IWAVPR =     10    prediction:  0-non 1-charg 2-wave 3-comb
   ISYM   =      3    0-nonsym 1-usesym 2-fastsym
   LCORR  =      T    Harris-Foulkes like correction to forces

   POTIM  = 0.5000    time-step for ionic-motion
   TEIN   =    0.0    initial temperature
   TEBEG  =    0.0;   TEEND  =   0.0 temperature during run
   SMASS  =  -3.00    Nose mass-parameter (am)
   estimated Nose-frequenzy (Omega)   =  0.10E-29 period in steps =****** mass=  -0.374E-26a.u.
   SCALEE = 1.0000    scale energy and forces
   NPACO  =    256;   APACO  = 16.0  distance and # of slots for P.C.
   PSTRESS=    0.0 pullay stress

  Mass of Ions in am
   POMASS =  12.01 14.00 55.85 47.88
  Ionic Valenz
   ZVAL   =   4.00  5.00  8.00  4.00
  Atomic Wigner-Seitz radii
  virtual crystal weights
   VCA    =   1.00  1.00  1.00  1.00
   NELECT =     238.0000    total number of electrons
   NUPDOWN=      -1.0000    fix difference up-down

 DOS related values:
   EMIN   =  10.00;   EMAX   =-10.00  energy-range for DOS
   EFERMI =   0.00
   ISMEAR =     0;   SIGMA  =   0.10  broadening in eV -4-tet -1-fermi 0-gaus

 Electronic relaxation 2 (details)
   IALGO  =     53    algorithm
   LDIAG  =      T    sub-space diagonalisation (order eigenvalues)
   LSUBROT=      F    optimize rotation matrix (better conditioning)
   TURBO    =      0    0=normal 1=particle mesh
   IRESTART =      0    0=no restart 2=restart with 2 vectors
   NREBOOT  =      0    no. of reboots
   NMIN     =      0    reboot dimension
   EREF     =   0.00    reference energy to select bands
   IMIX   =      4    mixing-type and parameters
     AMIX     =   0.40;   BMIX     =  1.00
     AMIX_MAG =   1.60;   BMIX_MAG =  1.00
     AMIN     =   0.10
     WC   =   100.;   INIMIX=   1;  MIXPRE=   1;  MAXMIX= -45

 Intra band minimization:
   WEIMIN = 0.0000     energy-eigenvalue tresh-hold
   EBREAK =  0.16E-06  absolut break condition
   DEPER  =   0.30     relativ break condition

   TIME   =   0.20     timestep for ELM

[...]
   33        0.866   1.762   0.000   2.628
   34        0.864   1.755   0.000   2.619
   35        0.863   1.755   0.000   2.618
   36        0.861   1.733   0.000   2.594
   37        0.863   1.747   0.000   2.610
   38        0.863   1.749   0.000   2.612
   39        0.861   1.750   0.000   2.611
   40        0.867   1.761   0.000   2.628
   41        0.863   1.733   0.000   2.596
   42        0.861   1.751   0.000   2.612
   43        0.864   1.762   0.000   2.626
   44        0.864   1.745   0.000   2.609
   45        0.866   1.757   0.000   2.623
   46        0.865   1.757   0.000   2.622
   47        0.863   1.760   0.000   2.623
   48        0.864   1.759   0.000   2.624
   49        0.865   1.750   0.000   2.615
   50        0.865   1.762   0.000   2.628
   51        0.872   1.662   0.000   2.534
   52        0.867   1.646   0.000   2.514
   53        0.911   1.509   0.000   2.420
   54        0.866   1.648   0.000   2.514
   55        1.252   2.599   0.000   3.851
   56        1.238   2.681   0.000   3.918
   57        0.543   0.803   6.175   7.520
   58        0.486   0.728   2.716   3.931
tot         50.275 101.123   8.891 160.288

 magnetization (x)

[...]

  FORCE on cell =-STRESS in cart. coord.  units (eV):
  Direction    XX          YY          ZZ          XY          YZ          ZX
  Alpha Z    99.38194    99.38194    99.38194
  Ewald   45189.83009 44838.83587-52991.81463     8.12118  -209.37679   124.39153
  Hartree 44405.06217 44293.77420-43861.65010    -2.15922  -189.76850   126.71647
  E(xc)    -683.98959  -683.45736  -694.91590    -0.21876     0.21420    -0.06594
  Local  -92121.47147-91688.18687 93875.82821    -3.17729   401.78691  -252.37001
  n-local  -153.36637  -152.81638  -146.50725     0.56132     0.59909     0.10285
  augment    24.58210    21.91840    20.72028     0.17811    -1.54938    -0.02220
  Kinetic  3475.77422  3505.55720  3949.91064    -2.94669    -2.50669     1.49656
  Fock     -280.27152  -277.06584  -251.78647    -0.12246     0.51710    -0.40792
  Total     -44.46844   -42.05884    -0.83330     0.23619    -0.08407    -0.15865
  in kB     -22.42644   -21.21123    -0.42025     0.11911    -0.04240    -0.08001

 VOLUME and BASIS-vectors are now :
  energy-cutoff  :      500.00
  volume of cell :     3176.89
      direct lattice vectors                 reciprocal lattice vectors
    12.800644171 -0.020584836  0.021594578     0.078121492  0.000125667 -0.000131547
    -0.020083495 12.458577061 -0.025282593     0.000128674  0.080266682  0.000239410
     0.033639930 -0.059471263 19.920802585    -0.000084522  0.000101735  0.050199227

  length of vectors
    12.800678937 12.458618902 19.920919761     0.078121704  0.080267142  0.050199401

 FORCES acting on ions:
    Electron-Ion                     Ewald-Force                    Non-Local-Force
   0.258E+00 -.252E+01 -.148E+02   -.537E+00 0.301E+01 0.148E+02   0.163E+00 -.526E+00 -.548E-01
   -.232E+00 -.341E+01 -.128E+02   0.912E-01 0.367E+01 0.129E+02   0.818E-01 -.200E+00 -.238E-01
   0.637E+01 -.168E+01 -.142E+02   -.644E+01 0.178E+01 0.142E+02   0.180E+00 -.118E+00 -.137E-01
   0.421E+01 -.335E+01 -.157E+02   -.407E+01 0.387E+01 0.157E+02   -.374E-01 -.422E+00 0.288E-02
   0.682E+00 -.910E+01 -.127E+02   -.309E+00 0.968E+01 0.127E+02   -.331E+00 -.616E+00 -.335E-01
   -.589E+00 -.406E+01 -.790E+01   0.409E+00 0.405E+01 0.796E+01   0.597E-01 -.264E-01 -.645E-01
   0.138E+01 -.319E+01 -.102E+02   -.121E+01 0.330E+01 0.101E+02   -.187E+00 -.117E+00 0.464E-01
   0.279E+00 -.776E+01 -.105E+02   0.148E+01 0.772E+01 0.103E+02   -.145E+01 -.606E-01 0.187E+00
   -.258E+01 0.331E+01 -.705E+01   0.300E+01 -.383E+01 0.731E+01   -.541E+00 0.752E+00 -.297E+00
   0.811E+00 0.203E+01 0.701E+00   -.978E+00 -.205E+01 -.741E+00   0.212E+00 0.908E-01 0.533E-01
   0.265E+01 0.407E+00 -.521E+01   -.238E+01 -.310E+00 0.529E+01   -.146E+00 -.486E-01 -.755E-01
   0.263E+02 -.185E+01 0.173E+02   -.298E+02 0.122E+01 -.165E+02   0.326E+01 0.503E+00 -.649E+00
   -.285E+01 0.322E+01 0.152E+02   0.254E+01 -.406E+01 -.154E+02   0.327E+00 0.629E+00 0.224E+00
   0.725E+00 0.489E+01 -.823E+01   -.990E+00 -.511E+01 0.827E+01   0.171E+00 0.189E+00 -.462E-01
   0.159E+01 0.261E+01 0.512E+00   -.187E+01 -.289E+01 -.405E+00   0.200E+00 0.170E+00 -.930E-01
   0.199E+02 0.163E+02 -.182E+00   -.239E+02 -.168E+02 0.410E+00   0.418E+01 0.498E+00 -.279E+00
   0.498E+01 0.396E+01 -.126E+02   -.567E+01 -.362E+01 0.127E+02   0.598E+00 -.265E+00 -.902E-01
   0.568E+00 0.273E+00 -.135E+02   -.751E+00 -.263E+00 0.135E+02   0.159E+00 -.365E-01 -.248E-01
   0.453E+01 0.215E+01 -.123E+02   -.501E+01 -.222E+01 0.124E+02   0.499E+00 0.117E+00 -.584E-01
   0.356E+01 -.283E+01 -.109E+02   -.384E+01 0.322E+01 0.109E+02   0.270E+00 -.423E+00 -.239E-01
   -.526E+01 0.283E+01 -.432E+01   0.547E+01 -.254E+01 0.432E+01   -.211E+00 -.259E+00 -.277E-01
   0.122E+01 0.512E+00 -.173E+02   -.110E+01 0.758E-01 0.173E+02   -.200E+00 -.569E+00 -.664E-01
   -.391E+01 -.103E+01 -.865E+01   0.426E+01 0.164E+01 0.867E+01   -.303E+00 -.593E+00 -.309E-01
   -.213E+01 0.693E+00 -.109E+02   0.208E+01 -.162E+00 0.109E+02   0.128E+00 -.528E+00 -.886E-01
   -.509E+01 -.621E+01 -.146E+02   0.558E+01 0.787E+01 0.148E+02   -.282E+00 -.137E+01 -.189E+00
   -.232E+01 -.470E+01 -.176E+02   0.206E+01 0.629E+01 0.177E+02   0.717E-01 -.132E+01 -.764E-01
   -.654E+01 0.255E+02 0.867E+01   0.823E+01 -.260E+02 -.747E+01   -.147E+01 0.567E+00 -.105E+01
   -.305E+01 -.299E+01 -.397E+01   0.321E+01 0.386E+01 0.407E+01   -.106E+00 -.830E+00 -.731E-01
   -.336E+02 -.338E+01 0.184E+00   0.356E+02 0.696E+01 0.101E+01   -.213E+01 -.356E+01 -.115E+01
   -.118E+01 0.111E+02 0.697E+01   0.115E+01 -.110E+02 -.701E+01   -.619E-03 -.102E+00 0.110E+00
   -.252E+01 -.867E+00 -.122E+02   0.239E+01 0.919E+00 0.122E+02   0.389E-02 -.642E-01 -.364E-01
   -.505E+01 -.228E+01 -.794E+01   0.498E+01 0.271E+01 0.790E+01   -.198E-01 -.296E+00 0.232E-01
   0.347E+01 0.262E+01 -.918E+01   -.337E+01 -.250E+01 0.922E+01   0.283E-01 -.171E+00 -.425E-01
   0.360E+01 -.178E+01 -.109E+02   -.367E+01 0.199E+01 0.109E+02   0.111E+00 -.148E+00 -.219E-01
   0.106E+01 -.428E+01 -.619E+01   -.133E+01 0.438E+01 0.616E+01   0.281E+00 -.103E+00 0.296E-01
   0.275E+01 -.132E+02 -.287E+01   -.449E+01 0.132E+02 0.276E+01   0.148E+01 -.122E+00 0.129E+00
   0.206E+01 -.940E+01 -.611E+01   -.246E+01 0.996E+01 0.613E+01   0.352E+00 -.601E+00 -.211E-01
   0.397E+01 -.366E+01 -.490E+01   -.394E+01 0.366E+01 0.492E+01   0.711E-01 -.628E-01 -.185E-01
   0.298E+01 -.141E+01 0.368E+00   -.339E+01 0.155E+01 -.362E+00   0.255E+00 -.611E-01 0.101E-02
   0.161E+02 -.411E+01 0.131E+02   -.160E+02 0.415E+01 -.125E+02   0.128E+00 -.673E-01 -.447E+00
   0.129E+02 -.340E+01 0.277E+01   -.132E+02 0.283E+01 -.231E+01   0.453E+00 0.727E+00 -.464E+00
   0.420E+01 0.201E+01 0.293E+00   -.428E+01 -.202E+01 -.337E+00   0.134E-01 0.533E-01 0.562E-01
   0.447E+01 0.227E+01 -.597E+01   -.465E+01 -.255E+01 0.599E+01   0.221E+00 0.163E+00 -.259E-01
   0.167E+02 0.137E+02 -.123E+02   -.175E+02 -.140E+02 0.123E+02   0.626E+00 0.346E+00 0.296E-03
   0.178E+02 0.120E+01 -.235E+01   -.181E+02 -.962E+00 0.205E+01   0.213E+00 -.346E+00 0.310E+00
   0.642E+01 0.265E+01 -.113E+02   -.649E+01 -.282E+01 0.114E+02   0.131E+00 0.121E+00 -.688E-01
   0.391E+01 0.416E+01 -.136E+02   -.403E+01 -.417E+01 0.137E+02   0.647E-01 0.752E-01 -.538E-01
   -.166E+00 0.466E+01 -.521E+01   0.250E+00 -.474E+01 0.522E+01   -.759E-01 0.614E-01 -.103E-01
   0.706E+01 0.938E+01 -.130E+02   -.721E+01 -.971E+01 0.131E+02   0.172E+00 0.366E+00 -.896E-01
   0.513E+01 0.114E+01 -.130E+02   -.528E+01 -.119E+01 0.130E+02   0.147E+00 0.208E-01 -.492E-02
   -.739E+01 -.352E+02 -.243E+02   0.108E+02 0.407E+02 0.252E+02   -.390E+01 -.573E+01 -.764E+00
   0.494E+01 -.459E+02 -.152E+02   -.821E+01 0.512E+02 0.156E+02   0.370E+01 -.566E+01 -.399E+00
   0.169E+02 -.436E+02 0.684E+02   -.228E+02 0.433E+02 -.703E+02   0.593E+01 0.110E+01 0.150E+01
   0.395E+02 0.736E+02 -.451E+01   -.419E+02 -.802E+02 0.478E+01   0.251E+01 0.651E+01 -.407E+00
   -.384E+02 -.384E+02 0.935E+02   0.521E+02 0.399E+02 -.964E+02   -.127E+02 -.903E+00 0.258E+01
   -.570E+02 0.838E+02 0.145E+02   0.670E+02 -.102E+03 -.138E+02   -.955E+01 0.174E+02 -.719E+00
   -.376E+02 -.820E+01 -.677E+02   0.374E+02 0.181E+01 0.674E+02   -.430E+00 0.464E+01 0.841E+00
   -.304E+02 -.184E+02 0.261E+03   0.311E+02 0.173E+02 -.254E+03   -.566E+00 0.149E+01 -.768E+01
   0.814E+01 -.113E+02 0.968E+01   -.213E-12 -.298E-12 0.284E-13   -.722E+01 0.103E+02 -.977E+01

 POSITION                                       TOTAL-FORCE (eV/Angst)
      2.83843     -0.02814     10.05451        -0.112188     -0.062124     -0.018520
      0.71785      1.22234     10.05189        -0.059648      0.046493     -0.015907
      1.41871     -0.03017     10.05933         0.125753     -0.029447     -0.014567
      3.55806      1.20937     10.05769         0.100346      0.080246     -0.021939
      2.87498      2.46407     10.03938         0.024209     -0.065104     -0.018331
      0.72548      3.71000     10.00468        -0.119091     -0.045255     -0.001981
      1.44084      2.46562     10.03413        -0.017557     -0.005522     -0.002515
      3.63050      3.70311     10.00465         0.240004     -0.106817      0.008005
      2.88682      4.94724      9.94908        -0.156903      0.279159     -0.052728
      0.73087      6.20037      9.94665         0.054584      0.074913      0.016884
      1.45740      4.95561      9.97053         0.120901      0.046677     -0.004017
      3.59809      6.20205      9.81739        -0.003296     -0.102602      0.065782
      2.87758      7.45798      9.86141         0.030477     -0.185712      0.047275
      0.71222      8.68634      9.98085        -0.088359     -0.020667     -0.011206
      1.44516      7.44899      9.93299        -0.063987     -0.095943      0.008596
      3.57620      8.71960      9.89390         0.437229      0.100851     -0.067172
      2.83497      9.94657      9.97892        -0.057980      0.061206      0.004076
      0.69664     11.17760     10.02657        -0.020197     -0.028037     -0.011564
      1.41018      9.93498     10.00289         0.043374      0.052365     -0.008587
      3.52873     11.19226      9.99514         0.006503     -0.057025     -0.013592
      7.09997     12.38893      9.98191        -0.017220      0.009833     -0.026141
      4.98146      1.18058     10.05541        -0.088936     -0.003135     -0.046729
      5.67841     12.40746      9.99469         0.024111     -0.008205     -0.015438
      7.83852      1.16817     10.03503         0.087733     -0.017963     -0.040540
      7.13141      2.39766     10.03966         0.189724      0.237012     -0.016992
      5.69526      2.39667     10.05040        -0.188341      0.211593     -0.009112
      7.08833      9.89677      9.88872         0.136435      0.089478      0.098825
      4.95353     11.19076      9.96103         0.048875     -0.008494      0.025408
      5.63984      9.95793      9.89640        -0.226435     -0.190369     -0.016614
      7.80315     11.14756      9.93867        -0.033686     -0.016822      0.074812
     11.36692     12.40223     10.04006        -0.134767     -0.016932     -0.018730
      9.25903      1.18396     10.03508        -0.095373      0.113719     -0.007950
      9.94652     12.39707     10.01814         0.137551     -0.056636     -0.014330
     12.09068      1.19915     10.06250         0.059470      0.055614     -0.011502
     11.37588      2.44402     10.03277         0.024701     -0.006579     -0.000167
      9.19475      3.68372      9.98751        -0.195904     -0.074692      0.029016
      9.94354      2.44241     10.02197        -0.027483     -0.072050     -0.003715
     12.09619      3.68773     10.01372         0.108852     -0.062676      0.006479
     11.36868      4.93259      9.97443        -0.143710      0.073839      0.007664
      9.22592      6.18534      9.86808         0.201249     -0.020228      0.076960
      9.94040      4.92737      9.94552         0.150579      0.196983     -0.023305
     12.09785      6.17640      9.97090        -0.061344      0.049882      0.015691
     11.37516      7.41810      9.98052         0.044312     -0.108841     -0.003674
      9.20931      8.65581      9.96003        -0.102015      0.036852     -0.091162
      9.95298      7.42133      9.94020        -0.083901     -0.126429      0.019270
     12.08726      8.66428     10.01323         0.073893     -0.049172     -0.008953
     11.36648      9.90617     10.02935        -0.058953      0.077453     -0.008787
      9.23093     11.14826      9.98860         0.001344     -0.021649     -0.001572
      9.93502      9.90293     10.00455         0.033336      0.060081      0.001740
     12.07306     11.15329     10.04468         0.006651     -0.028894     -0.016653
      5.05604      3.65740     10.03554        -0.671128     -0.601040      0.021303
      7.76835      3.66892     10.01302         0.620882     -0.636484     -0.016499
      7.83774      6.18410      9.69016         0.345744      0.869874     -0.277835
      7.79242      8.64215      9.88385         0.221180      0.298548     -0.153078
      4.93365      6.20114      9.65029        -0.041342      0.559786     -0.147585
      4.95012      8.77126      9.82826        -0.398311      0.578496     -0.099172
      6.37640      5.12452      9.96074        -0.404378     -0.932130      0.130869
      6.28643      7.44401      9.02188        -0.027571     -0.397281      0.680204
    total drift:                                0.005213      0.000515     -0.016769

  FREE ENERGIE OF THE ION-ELECTRON SYSTEM (eV)
  free  energy   TOTEN  =      -606.68316793 eV

  energy  without entropy=     -606.68316793  energy(sigma->0) =     -606.68316793

 stress matrix after NEB project (eV)
    -44.46844      0.23619     -0.15865
      0.23619    -42.05884     -0.08365
     -0.15893     -0.08407     -0.83330
  FORCES: max atom, RMS     1.024459    0.334576
  FORCE total and by dimension    2.548055    0.932130
  Stress total and by dimension   61.214855   44.468436
 writing wavefunctions

 total charge

[...]

 magnetization (x)

# of ion       s       p       d       tot
    1        0.000   0.001   0.000   0.001
    2        0.000   0.002   0.000   0.002
    3       -0.000  -0.003   0.000  -0.003
    4        0.001   0.008   0.000   0.008
    5       -0.001  -0.004   0.000  -0.005
    6        0.000   0.003   0.000   0.003
    7       -0.000  -0.004   0.000  -0.004
    8        0.000   0.004   0.000   0.004
    9        0.001   0.009   0.000   0.010
   10        0.000   0.004   0.000   0.004
   11       -0.000  -0.000   0.000  -0.001
   12       -0.001  -0.013   0.000  -0.014
   13        0.000   0.008   0.000   0.009
   14        0.000   0.002   0.000   0.002
   15       -0.000   0.001   0.000   0.001
   16       -0.001  -0.013   0.000  -0.014
   17        0.000   0.004   0.000   0.004
   18        0.000   0.002   0.000   0.002
   19       -0.000  -0.002   0.000  -0.002
   20       -0.000  -0.002   0.000  -0.002
   21       -0.000   0.003   0.000   0.003
   22       -0.001  -0.007   0.000  -0.008
   23       -0.000   0.003   0.000   0.003
   24       -0.001  -0.007   0.000  -0.009
   25       -0.000   0.014   0.000   0.013
   26        0.000   0.014   0.000   0.015
   27       -0.003  -0.007   0.000  -0.010
   28        0.000   0.002   0.000   0.002
   29       -0.001  -0.002   0.000  -0.003
   30       -0.001  -0.004   0.000  -0.005
   31        0.000   0.003   0.000   0.003
   32        0.001   0.008   0.000   0.009
   33       -0.000  -0.003   0.000  -0.003
   34       -0.000  -0.002   0.000  -0.002
   35        0.000   0.001   0.000   0.001
   36        0.000   0.005   0.000   0.006
   37       -0.001  -0.004   0.000  -0.005
   38       -0.000  -0.002   0.000  -0.002
   39       -0.000   0.002   0.000   0.002
   40        0.001  -0.000   0.000   0.001
   41       -0.001   0.004   0.000   0.004
   42        0.000   0.008   0.000   0.008
   43       -0.000  -0.001   0.000  -0.001
   44        0.000   0.002   0.000   0.002
   45       -0.000   0.008   0.000   0.008
   46       -0.000  -0.002   0.000  -0.002
   47        0.000   0.003   0.000   0.004
   48        0.000   0.005   0.000   0.005
   49       -0.000  -0.003   0.000  -0.003
   50       -0.000  -0.002   0.000  -0.002
   51       -0.016  -0.067   0.000  -0.083
   52       -0.011  -0.041   0.000  -0.052
   53       -0.007  -0.097   0.000  -0.104
   54        0.002   0.007   0.000   0.009
   55       -0.000   0.019   0.000   0.019
   56        0.003   0.022   0.000   0.025
   57        0.052   0.015   2.607   2.673
   58       -0.009  -0.007  -0.650  -0.666
tot          0.005  -0.103   1.957   1.859