 vasp.5.4.4.18Apr17-6-g9f103f2a35 (build Feb 25 2019 10:51:38) complex

 executed on             LinuxIFC date 2022.01.27  15:16:08

 INCAR:
 POTCAR:    PAW_PBE C 08Apr2002
 POTCAR:    PAW_PBE N 08Apr2002
 POTCAR:    PAW_PBE Fe 06Sep2000
 POTCAR:    PAW_PBE Zn 06Sep2000

 POTCAR:    PAW_PBE C 08Apr2002
   VRHFIN =C: s2p2

   TITEL  = PAW_PBE C 08Apr2002
   POMASS =   12.011; ZVAL   =    4.000    mass and valenz
   ENMAX  =  400.000; ENMIN  =  300.000 eV

 POTCAR:    PAW_PBE N 08Apr2002
   VRHFIN =N: s2p3

   TITEL  = PAW_PBE N 08Apr2002
   POMASS =   14.001; ZVAL   =    5.000    mass and valenz
   ENMAX  =  400.000; ENMIN  =  300.000 eV

 POTCAR:    PAW_PBE Fe 06Sep2000
   VRHFIN =Fe:  d7 s1

   TITEL  = PAW_PBE Fe 06Sep2000
   POMASS =   55.847; ZVAL   =    8.000    mass and valenz
   ENMAX  =  267.882; ENMIN  =  200.911 eV

 POTCAR:    PAW_PBE Zn 06Sep2000
   VRHFIN =Zn: d10 p2

   TITEL  = PAW_PBE Zn 06Sep2000
   POMASS =   65.390; ZVAL   =   12.000    mass and valenz
   ENMAX  =  276.723; ENMIN  =  207.542 eV

  PAW_PBE C 08Apr2002                   :
  PAW_PBE N 08Apr2002                   :
  PAW_PBE Fe 06Sep2000                  :
  PAW_PBE Zn 06Sep2000                  :

 POSCAR:  C  N Fe Zn
  positions in cartesian coordinates
 exchange correlation table for  LEXCH =        8
   RHO(1)=    0.500       N(1)  =     2000
   RHO(2)=  100.500       N(2)  =     4000

 VTST: version 3.2, (02/03/18)

 CHAIN: initializing optimizer

 OPT: Using VASP Conjugate-Gradient optimizer
 CHAIN: Read ICHAIN            0

 POSCAR:  C  N Fe Zn
  positions in cartesian coordinates

 ion  position               nearest neighbor table
   1  0.221  1.000  0.501-   4 1.42   3 1.43  19 1.44
   2  0.052  0.101  0.501-   7 1.42  34 1.43   3 1.44
   3  0.109  0.001  0.501-  17 1.42   1 1.43   2 1.44
   4  0.275  0.100  0.502-   1 1.42  21 1.42   5 1.44
   5  0.218  0.200  0.502-   8 1.41   7 1.42   4 1.44
   6  0.052  0.301  0.502-  38 1.43   7 1.43  11 1.43
   7  0.107  0.201  0.502-   2 1.42   5 1.42   6 1.43
   8  0.273  0.298  0.502-  51 1.38   5 1.41   9 1.44
   9  0.219  0.400  0.500-  50 1.40  11 1.41   8 1.44
  10  0.056  0.502  0.501-  41 1.42  11 1.43  14 1.44
  11  0.109  0.400  0.502-   9 1.41  10 1.43   6 1.43
  12  0.227  0.595  0.498-  50 1.40  14 1.44  15 1.47
  13  0.058  0.701  0.500-  18 1.42  45 1.43  14 1.44
  14  0.115  0.600  0.500-  10 1.44  12 1.44  13 1.44
  15  0.284  0.698  0.498-  53 1.37  16 1.46  12 1.47
  16  0.224  0.798  0.499-  19 1.43  18 1.43  15 1.46
  17  0.056  0.901  0.500-   3 1.42  49 1.43  18 1.45
  18  0.113  0.800  0.500-  13 1.42  16 1.43  17 1.45
  19  0.278  0.899  0.500-  28 1.43  16 1.43   1 1.44
  20  0.554  0.002  0.500-  22 1.42  23 1.44  30 1.44
  21  0.386  0.101  0.501-   4 1.42  22 1.44  25 1.44
  22  0.443  0.001  0.501-  20 1.42  28 1.44  21 1.44
  23  0.607  0.104  0.498-  32 1.43  20 1.44  24 1.45
  24  0.550  0.205  0.496-  25 1.43  23 1.45  26 1.46
  25  0.438  0.204  0.499-  51 1.39  24 1.43  21 1.44
  26  0.605  0.308  0.491-  52 1.36  36 1.45  24 1.46
  27  0.557  0.797  0.501-  54 1.38  30 1.44  29 1.47
  28  0.389  0.899  0.500-  19 1.43  22 1.44  29 1.45
  29  0.443  0.796  0.500-  53 1.36  28 1.45  27 1.47
  30  0.609  0.901  0.501-  47 1.43  27 1.44  20 1.44
  31  0.887  0.003  0.500-  34 1.42  33 1.43  49 1.44
  32  0.719  0.105  0.499-  23 1.43  37 1.44  33 1.45
  33  0.775  0.004  0.500-  47 1.43  31 1.43  32 1.45
  34  0.941  0.103  0.501-  31 1.42   2 1.43  35 1.44
  35  0.885  0.204  0.501-  38 1.43  37 1.44  34 1.44
  36  0.718  0.309  0.498-  26 1.45  40 1.45  37 1.45
  37  0.773  0.207  0.499-  35 1.44  32 1.44  36 1.45
  38  0.941  0.303  0.502-  35 1.43   6 1.43  39 1.43
  39  0.887  0.404  0.502-  41 1.43  38 1.43  40 1.43
  40  0.776  0.409  0.503-  55 1.38  39 1.43  36 1.45
  41  0.945  0.503  0.502-  10 1.42  39 1.43  42 1.43
  42  0.891  0.604  0.502-  44 1.41  45 1.42  41 1.43
  43  0.722  0.704  0.504-  54 1.39  48 1.42  44 1.46
  44  0.781  0.603  0.505-  55 1.37  42 1.41  43 1.46
  45  0.947  0.703  0.501-  42 1.42  13 1.43  46 1.43
  46  0.890  0.803  0.501-  49 1.42  48 1.43  45 1.43
  47  0.721  0.903  0.501-  33 1.43  30 1.43  48 1.44
  48  0.778  0.803  0.502-  43 1.42  46 1.43  47 1.44
  49  0.944  0.903  0.500-  46 1.42  17 1.43  31 1.44
  50  0.277  0.496  0.497-  12 1.40   9 1.40  56 1.94
  51  0.381  0.299  0.500-   8 1.38  25 1.39  56 1.87
  52  0.549  0.398  0.478-  26 1.36  56 1.76  57 1.97
  53  0.391  0.700  0.498-  29 1.36  15 1.37
  54  0.614  0.703  0.503-  27 1.38  43 1.39  57 1.98
  55  0.727  0.508  0.507-  44 1.37  40 1.38  57 1.98
  56  0.418  0.442  0.484-  52 1.76  51 1.87  50 1.94  57 2.46
  57  0.577  0.548  0.507-  52 1.97  54 1.98  55 1.98  56 2.46

  LATTYP: Found a simple orthorhombic cell.
 ALAT       =    12.4000000000
 B/A-ratio  =     1.0330645161
 C/A-ratio  =     1.6129032258

  Lattice vectors:

 A1 = (   0.0000000000, -12.4000000000,   0.0000000000)
 A2 = ( -12.8100000000,   0.0000000000,   0.0000000000)
 A3 = (   0.0000000000,   0.0000000000, -20.0000000000)

Analysis of symmetry for initial positions (statically):
 Subroutine PRICEL returns:
 Original cell was already a primitive cell.

 Routine SETGRP: Setting up the symmetry group for a
 simple orthorhombic supercell.

 Subroutine GETGRP returns: Found  1 space group operations
 (whereof  1 operations were pure point group operations)
 out of a pool of  8 trial point group operations.

The static configuration has the point symmetry C_1 .

Analysis of symmetry for dynamics (positions and initial velocities):
 Subroutine PRICEL returns:
 Original cell was already a primitive cell.

[...]

The dynamic configuration has the point symmetry C_1 .

Analysis of structural, dynamic, and magnetic symmetry:
 Subroutine PRICEL returns:
 Original cell was already a primitive cell.

 Routine SETGRP: Setting up the symmetry group for a
 simple orthorhombic supercell.

 Subroutine GETGRP returns: Found  1 space group operations
 (whereof  1 operations were pure point group operations)
 out of a pool of  8 trial point group operations.

The magnetic configuration has the point symmetry C_1 .

 Subroutine INISYM returns: Found  1 space group operations
 (whereof  1 operations are pure point group operations),
 and found     1 'primitive' translations

 KPOINTS: KPOINTS created by Atomic Simulation Env

Automatic generation of k-mesh.
Space group operators:
 irot       det(A)        alpha          n_x          n_y          n_z        tau_x        tau_y        tau_z
    1     1.000000     0.000000     1.000000     0.000000     0.000000     0.000000     0.000000     0.000000

 Subroutine IBZKPT returns following result:

 Found      2 irreducible k-points:

 Following reciprocal coordinates:
            Coordinates               Weight
  0.250000  0.250000  0.000000      2.000000
 -0.250000  0.250000  0.000000      2.000000

 Following cartesian coordinates:
            Coordinates               Weight
  0.019516  0.020161  0.000000      2.000000
 -0.019516  0.020161  0.000000      2.000000

 Subroutine IBZKPT_HF returns following result:

 Found      4 k-points in 1st BZ
 the following      4 k-points will be used (e.g. in the exchange kernel)
 Following reciprocal coordinates:   # in IRBZ
  0.250000  0.250000  0.000000    0.25000000   1 t-inv F
 -0.250000  0.250000  0.000000    0.25000000   2 t-inv F
 -0.250000 -0.250000  0.000000    0.25000000   1 t-inv T
  0.250000 -0.250000  0.000000    0.25000000   2 t-inv T

 SYSTEM =  unknown system
 POSCAR =   C  N Fe Zn

 Startparameter for this run:
   NWRITE =      2    write-flag & timer
   PREC   = accura    normal or accurate (medium, high low for compatibility)
   ISTART =      1    job   : 0-new  1-cont  2-samecut
   ICHARG =      0    charge: 1-file 2-atom 10-const
   ISPIN  =      2    spin polarized calculation?
   LNONCOLLINEAR =      F non collinear calculations
   LSORBIT =      F    spin-orbit coupling
   INIWAV =      1    electr: 0-lowe 1-rand  2-diag
   LASPH  =      T    aspherical Exc in radial PAW
   METAGGA=      F    non-selfconsistent MetaGGA calc.

 Electronic Relaxation 1
   ENCUT  =  500.0 eV  36.75 Ry    6.06 a.u.  23.36 22.61 36.46*2*pi/ulx,y,z
   ENINI  =  500.0     initial cutoff
   ENAUG  =  644.9 eV  augmentation charge cutoff
   NELM   =    250;   NELMIN=  2; NELMDL=  0     # of ELM steps
   EDIFF  = 0.1E-03   stopping-criterion for ELM
   LREAL  =      F    real-space projection
   NLSPLINE    = F    spline interpolate recip. space projectors
   LCOMPAT=      F    compatible to vasp.4.4
   GGA_COMPAT  = T    GGA compatible to vasp.4.4-vasp.4.6
   LMAXPAW     = -100 max onsite density
   LMAXMIX     =    2 max onsite mixed and CHGCAR
   VOSKOWN=      0    Vosko Wilk Nusair interpolation
   ROPT   =    0.00000   0.00000   0.00000   0.00000
 Ionic relaxation
   EDIFFG = -.3E-01   stopping-criterion for IOM
   NSW    =      0    number of steps for IOM
   NBLOCK =      1;   KBLOCK =      1    inner block; outer block
   IBRION =     -1    ionic relax: 0-MD 1-quasi-New 2-CG
   NFREE  =      1    steps in history (QN), initial steepest desc. (CG)
   ISIF   =      2    stress and relaxation
   IWAVPR =     10    prediction:  0-non 1-charg 2-wave 3-comb
   ISYM   =      3    0-nonsym 1-usesym 2-fastsym
   LCORR  =      T    Harris-Foulkes like correction to forces

   POTIM  = 0.5000    time-step for ionic-motion
   TEIN   =    0.0    initial temperature
   TEBEG  =    0.0;   TEEND  =   0.0 temperature during run
   SMASS  =  -3.00    Nose mass-parameter (am)
   estimated Nose-frequenzy (Omega)   =  0.10E-29 period in steps =****** mass=  -0.375E-26a.u.
   SCALEE = 1.0000    scale energy and forces
   NPACO  =    256;   APACO  = 16.0  distance and # of slots for P.C.
   PSTRESS=    0.0 pullay stress

  Mass of Ions in am
   POMASS =  12.01 14.00 55.85 65.39
  Ionic Valenz
   ZVAL   =   4.00  5.00  8.00 12.00
  Atomic Wigner-Seitz radii
  virtual crystal weights
   VCA    =   1.00  1.00  1.00  1.00
   NELECT =     246.0000    total number of electrons
   NUPDOWN=      -1.0000    fix difference up-down

 DOS related values:
   EMIN   =  10.00;   EMAX   =-10.00  energy-range for DOS
   EFERMI =   0.00
   ISMEAR =     0;   SIGMA  =   0.10  broadening in eV -4-tet -1-fermi 0-gaus

 Electronic relaxation 2 (details)
   IALGO  =     53    algorithm
   LDIAG  =      T    sub-space diagonalisation (order eigenvalues)
   LSUBROT=      F    optimize rotation matrix (better conditioning)
   TURBO    =      0    0=normal 1=particle mesh
   IRESTART =      0    0=no restart 2=restart with 2 vectors
   NREBOOT  =      0    no. of reboots
   NMIN     =      0    reboot dimension
   EREF     =   0.00    reference energy to select bands
   IMIX   =      4    mixing-type and parameters
     AMIX     =   0.40;   BMIX     =  1.00
     AMIX_MAG =   1.60;   BMIX_MAG =  1.00
     AMIN     =   0.10
     WC   =   100.;   INIMIX=   1;  MIXPRE=   1;  MAXMIX= -45

 Intra band minimization:
   WEIMIN = 0.0000     energy-eigenvalue tresh-hold
   EBREAK =  0.16E-06  absolut break condition
   DEPER  =   0.30     relativ break condition

   TIME   =   0.20     timestep for ELM

[...]
   27        0.851   1.699   0.000   2.551
   28        0.862   1.754   0.000   2.616
   29        0.852   1.714   0.000   2.565
   30        0.860   1.749   0.000   2.609
   31        0.863   1.766   0.000   2.629
   32        0.860   1.752   0.000   2.612
   33        0.861   1.757   0.000   2.618
   34        0.864   1.762   0.000   2.626
   35        0.862   1.758   0.000   2.620
   36        0.850   1.753   0.000   2.603
   37        0.860   1.736   0.000   2.596
   38        0.866   1.769   0.000   2.635
   39        0.865   1.768   0.000   2.633
   40        0.855   1.713   0.000   2.568
   41        0.867   1.770   0.000   2.636
   42        0.869   1.790   0.000   2.659
   43        0.856   1.734   0.000   2.591
   44        0.859   1.749   0.000   2.608
   45        0.864   1.774   0.000   2.638
   46        0.864   1.772   0.000   2.636
   47        0.866   1.754   0.000   2.620
   48        0.865   1.769   0.000   2.635
   49        0.865   1.763   0.000   2.628
   50        1.223   2.656   0.000   3.879
   51        1.225   2.674   0.000   3.899
   52        1.245   2.574   0.000   3.819
   53        1.247   2.610   0.000   3.857
   54        1.219   2.658   0.000   3.877
   55        1.228   2.688   0.000   3.916
   56        0.448   0.585   6.375   7.407
   57        0.511   0.493   9.853  10.857
tot         50.559 102.868  16.228 169.655

 magnetization (x)

[...]

  FORCE on cell =-STRESS in cart. coord.  units (eV):
  Direction    XX          YY          ZZ          XY          YZ          ZX
  Alpha Z   104.83716   104.83716   104.83716
  Ewald   48427.42079 48454.34334-57232.02902    40.72227     8.32320    -7.43485
  Hartree 48196.57239 48202.30212-47265.17773    52.58243    27.21614     5.24006
  E(xc)    -734.41850  -733.89499  -748.37866    -0.12772    -0.07110    -0.00804
  Local  -99185.65696-99210.40448101455.57721   -97.35430   -40.35789     1.51097
  n-local  -127.27512  -124.81334  -123.13826    -3.52942     1.58023     0.11357
  augment    46.10503    46.26113    50.06927    -0.35378    -0.13658    -0.16178
  Kinetic  3626.94026  3577.26555  4119.93476    27.72302     2.87481     1.01038
  Fock     -384.71433  -385.71907  -362.27834    -0.30296     0.62817    -0.30973
  Total     -30.18926   -69.82258    -0.58362    19.35954     0.05700    -0.03941
  in kB     -15.22517   -35.21321    -0.29434     9.76348     0.02875    -0.01988

 VOLUME and BASIS-vectors are now :
  energy-cutoff  :      500.00
  volume of cell :     3176.88
      direct lattice vectors                 reciprocal lattice vectors
    12.810000000  0.000000000  0.000000000     0.078064012  0.000000000  0.000000000
     0.000000000 12.400000000  0.000000000     0.000000000  0.080645161  0.000000000
     0.000000000  0.000000000 20.000000000     0.000000000  0.000000000  0.050000000

  length of vectors
    12.810000000 12.400000000 20.000000000     0.078064012  0.080645161  0.050000000

 FORCES acting on ions:
    Electron-Ion                     Ewald-Force                    Non-Local-Force
   0.158E+01 0.973E+01 -.488E+01   -.195E+01 -.968E+01 0.488E+01   0.351E+00 -.124E-01 -.644E-02
   0.262E+01 0.857E+01 -.465E+01   -.271E+01 -.869E+01 0.466E+01   0.642E-01 0.142E+00 -.127E-01
   0.169E+01 -.124E+01 -.206E+01   -.181E+01 0.116E+01 0.205E+01   0.696E-01 0.369E-01 0.139E-01
   0.619E+01 0.113E+02 -.108E+02   -.634E+01 -.117E+02 0.108E+02   0.166E+00 0.353E+00 -.356E-01
   0.138E+02 0.186E+02 -.127E+02   -.144E+02 -.187E+02 0.127E+02   0.449E+00 0.289E+00 0.218E-01
   0.455E+01 0.525E+01 -.879E+01   -.474E+01 -.560E+01 0.882E+01   0.191E+00 0.330E+00 -.301E-01
   0.757E+01 0.561E+01 -.825E+01   -.799E+01 -.568E+01 0.822E+01   0.392E+00 0.397E-01 0.243E-01
   0.440E+02 0.111E+02 -.213E+02   -.475E+02 -.115E+02 0.215E+02   0.368E+01 0.172E+00 -.218E+00
   0.287E+02 0.147E+02 -.115E+02   -.306E+02 -.170E+02 0.120E+02   0.198E+01 0.238E+01 -.463E+00
   -.205E+00 -.590E+01 -.434E+01   0.144E+00 0.604E+01 0.426E+01   0.572E-01 -.222E+00 0.757E-01
   0.147E+02 0.296E+01 -.868E+01   -.152E+02 -.332E+01 0.870E+01   0.438E+00 0.340E+00 -.343E-01
   -.226E+01 -.369E+02 0.501E+01   0.993E+00 0.399E+02 -.507E+01   0.120E+01 -.312E+01 0.192E-01
   -.546E+01 -.521E-01 0.237E+01   0.546E+01 0.397E+00 -.239E+01   -.166E-01 -.222E+00 0.382E-01
   0.890E+00 -.130E+02 -.100E+01   -.798E+00 0.134E+02 0.103E+01   0.241E-01 -.344E+00 -.294E-01
   0.268E+02 0.899E+01 0.690E+01   -.293E+02 -.881E+01 -.683E+01   0.252E+01 -.382E-02 -.697E-01
   0.403E+01 0.422E+01 0.254E+01   -.434E+01 -.464E+01 -.251E+01   0.303E+00 0.358E+00 -.269E-01
   -.171E+01 0.461E+01 0.207E+01   0.174E+01 -.451E+01 -.206E+01   -.390E-01 -.298E-01 0.296E-02
   -.171E+01 -.751E+01 0.339E+01   0.143E+01 0.753E+01 -.340E+01   0.232E+00 -.547E-01 0.249E-01
   0.633E+01 -.428E+01 -.103E+01   -.644E+01 0.442E+01 0.991E+00   0.126E+00 -.128E+00 0.382E-01
   -.590E+01 0.216E+01 -.233E+01   0.587E+01 -.177E+01 0.229E+01   0.116E+00 -.321E+00 0.259E-01
   -.483E+01 0.178E+02 -.101E+02   0.487E+01 -.185E+02 0.101E+02   -.260E-01 0.467E+00 -.490E-01
   0.375E+01 0.402E+01 -.546E+01   -.336E+01 -.393E+01 0.544E+01   -.432E+00 -.136E-01 -.197E-02
   -.110E+01 0.579E+01 0.515E+01   0.104E+01 -.583E+01 -.515E+01   -.207E-01 -.330E-01 -.618E-02
   -.140E+02 0.238E+02 0.141E+02   0.145E+02 -.235E+02 -.141E+02   -.447E+00 -.336E+00 0.127E-01
   -.185E+02 0.419E+02 -.436E+01   0.208E+02 -.447E+02 0.394E+01   -.257E+01 0.311E+01 0.418E+00
   -.335E+02 0.570E+02 0.311E+02   0.349E+02 -.592E+02 -.299E+02   -.173E+01 0.237E+01 -.127E+01
   0.329E+02 -.358E+02 -.396E+01   -.351E+02 0.390E+02 0.390E+01   0.252E+01 -.328E+01 0.473E-01
   -.438E+01 -.221E+01 -.319E+01   0.469E+01 0.246E+01 0.321E+01   -.330E+00 -.245E+00 -.279E-01
   -.116E+02 -.245E+02 0.191E+01   0.119E+02 0.267E+02 -.191E+01   -.688E+00 -.227E+01 -.162E-01
   0.750E+01 -.145E+02 -.436E+01   -.767E+01 0.152E+02 0.442E+01   0.119E+00 -.725E+00 -.669E-01
   -.148E+01 0.226E+01 0.109E+01   0.148E+01 -.222E+01 -.108E+01   -.872E-02 -.230E-01 0.647E-03
   -.598E+01 0.576E+01 0.674E+01   0.605E+01 -.570E+01 -.681E+01   -.207E-01 -.931E-01 0.907E-01
   0.110E+00 -.651E+01 0.299E+01   0.108E+00 0.694E+01 -.299E+01   -.155E+00 -.398E+00 0.628E-02
   0.188E+01 -.111E+01 -.258E+01   -.200E+01 0.103E+01 0.257E+01   0.109E+00 0.650E-01 0.158E-01
   -.851E+00 0.104E+02 -.555E+01   0.716E+00 -.105E+02 0.560E+01   0.883E-01 0.118E+00 -.561E-01
   -.144E+02 0.241E+02 0.169E+01   0.142E+02 -.242E+02 -.185E+01   0.209E+00 0.112E+00 0.197E+00
   -.209E+01 0.722E+01 -.353E+00   0.191E+01 -.707E+01 0.389E+00   0.188E+00 -.156E+00 -.330E-01
   -.675E+00 0.638E+01 -.556E+01   0.691E+00 -.671E+01 0.546E+01   -.143E-01 0.352E+00 0.954E-01
   -.153E+02 0.141E+02 -.803E+01   0.156E+02 -.145E+02 0.796E+01   -.127E+00 0.324E+00 0.657E-01
   -.253E+02 0.495E+02 -.124E+02   0.266E+02 -.531E+02 0.120E+02   -.140E+01 0.359E+01 0.379E+00
   -.126E+02 0.892E+00 -.840E+01   0.127E+02 -.995E+00 0.851E+01   -.824E-01 0.210E-01 -.112E+00
   -.249E+02 -.769E+01 -.441E+01   0.253E+02 0.818E+01 0.439E+01   -.525E+00 -.374E+00 0.405E-01
   -.460E+02 -.295E+02 -.132E+02   0.498E+02 0.299E+02 0.131E+02   -.381E+01 -.303E+00 -.101E-01
   -.463E+02 -.421E+02 -.169E+02   0.486E+02 0.445E+02 0.167E+02   -.216E+01 -.256E+01 0.230E+00
   -.117E+02 -.108E+02 0.789E+00   0.119E+02 0.111E+02 -.804E+00   -.235E+00 -.262E+00 0.226E-01
   -.782E+01 -.614E+01 -.346E+00   0.836E+01 0.623E+01 0.351E+00   -.504E+00 -.555E-01 0.127E-02
   -.438E+01 -.125E+02 -.144E+01   0.456E+01 0.130E+02 0.140E+01   -.157E+00 -.510E+00 0.348E-01
   -.139E+02 -.210E+02 -.543E+01   0.146E+02 0.215E+02 0.541E+01   -.668E+00 -.437E+00 -.238E-02
   -.297E+01 -.782E+01 0.203E+01   0.299E+01 0.796E+01 -.203E+01   -.148E-01 -.161E+00 0.131E-01
   -.315E+02 -.512E+02 0.103E+02   0.513E+02 0.516E+02 -.111E+02   -.192E+02 -.231E+00 0.908E+00
   -.150E+02 0.125E+02 -.380E+02   0.241E+02 0.158E+01 0.394E+02   -.866E+01 -.138E+02 -.134E+01
   -.227E+02 0.464E+02 0.203E+03   0.157E+02 -.371E+02 -.212E+03   0.735E+01 -.903E+01 0.863E+01
   -.361E+02 0.866E+02 0.165E+02   0.511E+02 -.112E+03 -.173E+02   -.139E+02 0.241E+02 0.802E+00
   0.446E+02 -.424E+02 -.780E+01   -.540E+02 0.275E+02 0.712E+01   0.882E+01 0.142E+02 0.677E+00
   -.329E+02 0.370E+02 -.583E+02   0.124E+02 -.378E+02 0.601E+02   0.194E+02 0.807E+00 -.183E+01
   0.831E+02 -.113E+03 0.182E+03   -.853E+02 0.107E+03 -.179E+03   0.116E+01 0.612E+01 -.308E+01
   0.153E+03 -.881E+02 -.186E+03   -.148E+03 0.849E+02 0.184E+03   -.410E+01 0.296E+01 0.162E+01
   0.104E+02 -.250E+02 -.638E+01   0.171E-12 0.455E-12 -.853E-13   -.974E+01 0.235E+02 0.578E+01

 POSITION                                       TOTAL-FORCE (eV/Angst)
      2.83061     12.39792     10.02274        -0.002858      0.043542     -0.004093
      0.67248      1.25262     10.02875        -0.022423      0.041152     -0.007176
      1.40073      0.01123     10.01788        -0.048139     -0.049354      0.000289
      3.52129      1.23806     10.03640         0.021663     -0.052858     -0.019650
      2.79420      2.47564     10.04353        -0.070020      0.154360      0.014885
      0.67100      3.73358     10.04230         0.000846     -0.006999     -0.005912
      1.37004      2.48910     10.04094        -0.003641     -0.039818     -0.000957
      3.49275      3.69923     10.03445         0.309193     -0.261828      0.005102
      2.80627      4.96505     10.00712         0.239316      0.298324     -0.021108
      0.71440      6.22023     10.02557        -0.001677     -0.101989     -0.005854
      1.39406      4.96498     10.03104        -0.056181     -0.003509     -0.014503
      2.90427      7.38407      9.96166        -0.012001     -0.362763     -0.039282
      0.74585      8.69092     10.00073        -0.023051      0.122886      0.020522
      1.46844      7.44253      9.99974         0.117543      0.034088     -0.005382
      3.63821      8.65864      9.96251         0.169878      0.187667      0.000789
      2.87305      9.90041      9.98696         0.004836     -0.034169     -0.000572
      0.71096     11.17279     10.00334        -0.010760      0.082516      0.014830
      1.44222      9.92604      9.99327        -0.032216     -0.046185      0.018028
      3.55966     11.15194     10.00476         0.029235      0.006328      0.003759
      7.09338      0.02490     10.00115         0.083845      0.056410     -0.015879
      4.94576      1.25607     10.01995         0.012035     -0.203167     -0.015385
      5.67207      0.01372     10.01328        -0.053794      0.071713     -0.022437
      7.77464      1.29134      9.96212        -0.080411     -0.079153     -0.005365
      7.04929      2.54541      9.91135         0.116307     -0.026453     -0.017496
      5.61709      2.52981      9.97759        -0.354688      0.485511      0.019632
      7.75296      3.82176      9.82288        -0.423335      0.374481     -0.066467
      7.13754      9.88843     10.02826         0.427195     -0.227378     -0.010156
      4.98523     11.15270     10.00831        -0.046696     -0.007893     -0.011322
      5.66995      9.86903      9.99311        -0.418709     -0.279343     -0.011908
      7.80582     11.16827     10.02074        -0.033508      0.011535     -0.017238
     11.35827      0.03320     10.00600        -0.009519      0.016278      0.009010
      9.20549      1.30403      9.97200         0.046496     -0.032637      0.025903
      9.92642      0.05003      9.99576         0.059745      0.012882      0.010169
     12.05267      1.27459     10.01918        -0.004166     -0.022983      0.002814
     11.33564      2.52616     10.02274        -0.042534     -0.055496     -0.009925
      9.19375      3.82838      9.96538         0.091864     -0.010820      0.041324
      9.90076      2.56100      9.98978         0.023570     -0.022445      0.001289
     12.05468      3.75674     10.03665         0.004222      0.029801      0.006321
     11.36737      5.01256     10.04902         0.131793      0.002107      0.002293
      9.93662      5.06875     10.05473        -0.221728      0.240024     -0.005966
     12.10579      6.23833     10.04926        -0.008719     -0.080996     -0.010513
     11.41135      7.49105     10.04939        -0.153714      0.099881      0.026386
      9.25457      8.73399     10.07281        -0.249579      0.071767     -0.038069
      9.99865      7.48266     10.09310         0.094187     -0.320059      0.034387
     12.12622      8.71526     10.02010         0.019507      0.002420      0.009370
     11.39909      9.95125     10.02101         0.012785      0.033951      0.005927
      9.23797     11.19917     10.01773         0.016322     -0.058448      0.003012
      9.96882      9.96169     10.04029        -0.012793     -0.022595     -0.014608
     12.08958     11.19300     10.00691         0.004123     -0.043941      0.011952
      3.54906      6.14558      9.93156        -1.015638      0.156667      0.132077
      4.87707      3.70271     10.00695        -0.316425     -0.946073     -0.083226
      7.02953      4.94056      9.56965         0.999675     -0.436564      0.322027
      5.00616      8.67879      9.95387        -0.217660      0.773827      0.059018
      7.86793      8.71369     10.05689         0.217767      0.556238      0.061024
      9.31441      6.29604     10.14077         0.588778      0.064786     -0.106496
      5.35864      5.48370      9.68766        -0.356450     -0.047770     -0.033044
      7.39435      6.79510     10.14254         0.460308     -0.147455     -0.242151
    total drift:                               -0.000251      0.003490     -0.005852

  FREE ENERGIE OF THE ION-ELECTRON SYSTEM (eV)
  free  energy   TOTEN  =      -588.88743190 eV

  energy  without entropy=     -588.88541031  energy(sigma->0) =     -588.88642111

 stress matrix after NEB project (eV)
    -30.18926     19.35903     -0.03941
     19.35954    -69.82258      0.05803
     -0.03901      0.05700     -0.58362
  FORCES: max atom, RMS     1.137383    0.360798
  FORCE total and by dimension    2.723966    1.015638
  Stress total and by dimension   80.848610   69.822577
 writing wavefunctions

 total charge

[...]

 magnetization (x)

# of ion       s       p       d       tot
    1        0.000   0.001   0.000   0.001
    2        0.000   0.000   0.000   0.000
    3       -0.000  -0.001   0.000  -0.001
    4        0.000  -0.000   0.000  -0.000
    5        0.000   0.000   0.000   0.001
    6        0.000   0.003   0.000   0.003
    7       -0.000  -0.002   0.000  -0.002
    8        0.001  -0.001   0.000   0.000
    9        0.002   0.006   0.000   0.008
   10        0.000   0.000   0.000   0.000
   11       -0.000  -0.001   0.000  -0.002
   12        0.000   0.003   0.000   0.004
   13        0.000   0.001   0.000   0.002
   14       -0.000  -0.000   0.000  -0.000
   15       -0.000  -0.002   0.000  -0.002
   16        0.000   0.000   0.000   0.000
   17        0.000   0.001   0.000   0.001
   18       -0.000  -0.001   0.000  -0.002
   19        0.000   0.000   0.000   0.000
   20       -0.000  -0.000   0.000  -0.000
   21       -0.001  -0.003   0.000  -0.004
   22        0.000   0.002   0.000   0.002
   23       -0.000  -0.002   0.000  -0.002
   24       -0.001  -0.005   0.000  -0.006
   25        0.000   0.002   0.000   0.003
   26        0.002   0.008   0.000   0.010
   27       -0.000  -0.001   0.000  -0.001
   28       -0.000  -0.000   0.000  -0.001
   29        0.000   0.000   0.000   0.001
   30       -0.000  -0.000   0.000  -0.000
   31        0.000   0.002   0.000   0.003
   32        0.000   0.002   0.000   0.002
   33       -0.000  -0.000   0.000  -0.000
   34       -0.000  -0.001   0.000  -0.001
   35        0.000   0.001   0.000   0.001
   36       -0.002  -0.002   0.000  -0.004
   37       -0.000  -0.001   0.000  -0.001
   38       -0.000  -0.000   0.000  -0.000
   39       -0.000   0.000   0.000   0.000
   40       -0.000  -0.000   0.000  -0.000
   41       -0.000  -0.001   0.000  -0.001
   42        0.000   0.001   0.000   0.001
   43        0.000   0.002   0.000   0.002
   44       -0.000   0.000   0.000  -0.000
   45       -0.000  -0.000   0.000  -0.000
   46        0.000   0.001   0.000   0.001
   47        0.000   0.001   0.000   0.001
   48       -0.000  -0.001   0.000  -0.002
   49       -0.000  -0.001   0.000  -0.001
   50       -0.004  -0.022   0.000  -0.026
   51       -0.008  -0.035   0.000  -0.042
   52       -0.010  -0.154   0.000  -0.165
   53        0.001   0.004   0.000   0.004
   54       -0.000   0.003   0.000   0.002
   55       -0.000   0.002   0.000   0.001
   56        0.015   0.023   2.104   2.142
   57        0.005  -0.003  -0.013  -0.011
tot         -0.001  -0.172   2.091   1.918