 vasp.5.4.4.18Apr17-6-g9f103f2a35 (build Feb 25 2019 10:51:38) complex

 executed on             LinuxIFC date 2021.06.16  01:37:49

 INCAR:
 POTCAR:    PAW_PBE C 08Apr2002
 POTCAR:    PAW_PBE N 08Apr2002
 POTCAR:    PAW_PBE Fe 06Sep2000
 POTCAR:    PAW_PBE Ti 08Apr2002

 POTCAR:    PAW_PBE C 08Apr2002
   VRHFIN =C: s2p2

   TITEL  = PAW_PBE C 08Apr2002
   POMASS =   12.011; ZVAL   =    4.000    mass and valenz
   ENMAX  =  400.000; ENMIN  =  300.000 eV

 POTCAR:    PAW_PBE N 08Apr2002
   VRHFIN =N: s2p3

[...]

 POTCAR:    PAW_PBE Fe 06Sep2000
   VRHFIN =Fe:  d7 s1

   TITEL  = PAW_PBE Fe 06Sep2000
   POMASS =   55.847; ZVAL   =    8.000    mass and valenz
   ENMAX  =  267.882; ENMIN  =  200.911 eV

 POTCAR:    PAW_PBE Ti 08Apr2002
   VRHFIN =Ti: d3 s1

   TITEL  = PAW_PBE Ti 08Apr2002
   POMASS =   47.880; ZVAL   =    4.000    mass and valenz
   ENMAX  =  178.330; ENMIN  =  133.747 eV

  PAW_PBE C 08Apr2002                   :
  PAW_PBE N 08Apr2002                   :
  PAW_PBE Fe 06Sep2000                  :
  PAW_PBE Ti 08Apr2002                  :

 POSCAR:  C  N Fe Ti
  positions in cartesian coordinates
 exchange correlation table for  LEXCH =        8
   RHO(1)=    0.500       N(1)  =     2000
   RHO(2)=  100.500       N(2)  =     4000

 VTST: version 3.2, (02/03/18)

 CHAIN: initializing optimizer

 OPT: Using VASP Conjugate-Gradient optimizer
 CHAIN: Read ICHAIN            0

 POSCAR:  C  N Fe Ti
  positions in cartesian coordinates

 ion  position               nearest neighbor table
   1  0.221  0.003  0.496-  19 1.43   3 1.43   4 1.43
   2  0.056  0.102  0.493-   3 1.42   7 1.44  38 1.44
   3  0.110  0.002  0.493-   2 1.42  17 1.43   1 1.43
   4  0.278  0.103  0.498-  21 1.43   1 1.43   5 1.44
   5  0.224  0.205  0.500-   4 1.44   7 1.44   8 1.45
   6  0.056  0.302  0.494-   7 1.43  11 1.43  42 1.43
   7  0.112  0.203  0.496-   6 1.43   2 1.44   5 1.44
   8  0.280  0.307  0.507-   5 1.45  25 1.46   9 1.47
   9  0.221  0.407  0.507-  55 1.38  11 1.43   8 1.47
  10  0.054  0.502  0.496-  46 1.42  14 1.43  11 1.43
  11  0.111  0.403  0.498-   6 1.43  10 1.43   9 1.43
  12  0.217  0.602  0.507-  55 1.38  14 1.42  15 1.44
  13  0.053  0.702  0.493-  18 1.42  50 1.43  14 1.43
  14  0.108  0.603  0.497-  12 1.42  10 1.43  13 1.43
  15  0.273  0.704  0.508-  58 1.38  16 1.42  12 1.44
  16  0.218  0.803  0.498-  15 1.42  18 1.43  19 1.43
  17  0.054  0.902  0.492-  18 1.43   3 1.43  54 1.43
  18  0.108  0.802  0.493-  13 1.42  16 1.43  17 1.43
  19  0.275  0.903  0.498-   1 1.43  32 1.43  16 1.43
  20  0.554  0.998  0.498-  22 1.43  23 1.43  34 1.44
  21  0.388  0.101  0.498-  26 1.43   4 1.43  22 1.44
  22  0.443  0.000  0.498-  32 1.42  20 1.43  21 1.44
  23  0.611  0.098  0.496-  24 1.43  36 1.43  20 1.43
  24  0.556  0.198  0.499-  27 1.43  23 1.43  26 1.43
  25  0.394  0.302  0.509-  56 1.38  26 1.43   8 1.46
  26  0.445  0.201  0.501-  21 1.43  24 1.43  25 1.43
  27  0.613  0.298  0.499-  24 1.43  40 1.43  28 1.43
  28  0.558  0.397  0.509-  56 1.38  27 1.43  29 1.44
  29  0.614  0.498  0.508-  57 1.39  44 1.42  28 1.44
  30  0.611  0.695  0.507-  57 1.39  48 1.43  31 1.46
  31  0.551  0.795  0.507-  34 1.46  33 1.46  30 1.46
  32  0.386  0.901  0.500-  22 1.42  19 1.43  33 1.43
  33  0.438  0.800  0.508-  58 1.39  32 1.43  31 1.46
  34  0.608  0.897  0.500-  20 1.44  52 1.44  31 1.46
  35  0.887  0.000  0.491-  54 1.43  38 1.43  37 1.44
  36  0.722  0.099  0.494-  37 1.43  41 1.43  23 1.43
  37  0.776  0.999  0.493-  36 1.43  52 1.44  35 1.44
  38  0.944  0.101  0.492-  39 1.43  35 1.43   2 1.44
  39  0.889  0.200  0.491-  38 1.43  42 1.43  41 1.43
  40  0.723  0.299  0.494-  45 1.42  41 1.43  27 1.43
  41  0.778  0.199  0.492-  40 1.43  36 1.43  39 1.43
  42  0.945  0.300  0.492-  43 1.43  39 1.43   6 1.43
  43  0.889  0.400  0.492-  46 1.43  45 1.43  42 1.43
  44  0.723  0.498  0.498-  29 1.42  45 1.43  49 1.43
  45  0.779  0.398  0.493-  40 1.42  43 1.43  44 1.43
  46  0.944  0.500  0.493-  10 1.42  43 1.43  47 1.43
  47  0.888  0.600  0.493-  49 1.42  50 1.43  46 1.43
  48  0.721  0.699  0.498-  53 1.43  30 1.43  49 1.43
  49  0.777  0.599  0.496-  47 1.42  44 1.43  48 1.43
  50  0.942  0.701  0.492-  47 1.43  13 1.43  51 1.43
  51  0.887  0.800  0.492-  50 1.43  54 1.43  53 1.43
  52  0.719  0.898  0.496-  53 1.43  37 1.44  34 1.44
  53  0.776  0.799  0.494-  48 1.43  52 1.43  51 1.43
  54  0.943  0.901  0.491-  35 1.43  51 1.43  17 1.43
  55  0.268  0.506  0.518-  12 1.38   9 1.38  59 1.95
  56  0.452  0.395  0.520-  28 1.38  25 1.38  59 1.95
  57  0.564  0.595  0.519-  29 1.39  30 1.39  60 2.01
  58  0.379  0.708  0.519-  15 1.38  33 1.39  60 2.01
  59  0.380  0.488  0.584-  60 1.89  56 1.95  55 1.95
  60  0.454  0.621  0.588-  59 1.89  57 2.01  58 2.01

  LATTYP: Found a triclinic cell.
 ALAT       =    12.3605000000
 B/A-ratio  =     1.6122486954
 C/A-ratio  =     1.0435904696
 COS(alpha) =     0.0004014257
 COS(beta)  =     0.0101017939
 COS(gamma) =     0.0146968885

  Lattice vectors:

 A1 = (  -0.1248632234,  12.3598693126,   0.0000000000)
 A2 = (  -0.0079996920,   0.2928166629, -19.9260470151)
 A3 = ( -12.8993000000,   0.0000000000,   0.0000000000)

Analysis of symmetry for initial positions (statically):
 Subroutine PRICEL returns:
 Original cell was already a primitive cell.

 Routine SETGRP: Setting up the symmetry group for a
 triclinic supercell.

 Subroutine GETGRP returns: Found  1 space group operations
 (whereof  1 operations were pure point group operations)
 out of a pool of  2 trial point group operations.

The static configuration has the point symmetry C_1 .

Analysis of symmetry for dynamics (positions and initial velocities):
 Subroutine PRICEL returns:
 Original cell was already a primitive cell.

[...]

The dynamic configuration has the point symmetry C_1 .

Analysis of structural, dynamic, and magnetic symmetry:
 Subroutine PRICEL returns:
 Original cell was already a primitive cell.

 Routine SETGRP: Setting up the symmetry group for a
 triclinic supercell.

 Subroutine GETGRP returns: Found  1 space group operations
 (whereof  1 operations were pure point group operations)
 out of a pool of  2 trial point group operations.

The magnetic configuration has the point symmetry C_1 .

 Subroutine INISYM returns: Found  1 space group operations
 (whereof  1 operations are pure point group operations),
 and found     1 'primitive' translations

 KPOINTS: KPOINTS created by Atomic Simulation Env

Automatic generation of k-mesh.
Space group operators:
 irot       det(A)        alpha          n_x          n_y          n_z        tau_x        tau_y        tau_z
    1     1.000000     0.000001     1.000000     0.000000     0.000000     0.000000     0.000000     0.000000

 Subroutine IBZKPT returns following result:

 Found      2 irreducible k-points:

 Following reciprocal coordinates:
            Coordinates               Weight
  0.250000  0.250000  0.000000      2.000000
 -0.250000  0.250000 -0.000000      2.000000

 Following cartesian coordinates:
            Coordinates               Weight
  0.019381  0.020423  0.000292      2.000000
 -0.019381  0.020031  0.000302      2.000000

 Subroutine IBZKPT_HF returns following result:

 Found      4 k-points in 1st BZ
 the following      4 k-points will be used (e.g. in the exchange kernel)
 Following reciprocal coordinates:   # in IRBZ
  0.250000  0.250000  0.000000    0.25000000   1 t-inv F
 -0.250000  0.250000 -0.000000    0.25000000   2 t-inv F
 -0.250000 -0.250000  0.000000    0.25000000   1 t-inv T
  0.250000 -0.250000  0.000000    0.25000000   2 t-inv T

 SYSTEM =  unknown system
 POSCAR =   C  N Fe Ti

 Startparameter for this run:
   NWRITE =      2    write-flag & timer
   PREC   = accura    normal or accurate (medium, high low for compatibility)
   ISTART =      1    job   : 0-new  1-cont  2-samecut
   ICHARG =      0    charge: 1-file 2-atom 10-const
   ISPIN  =      2    spin polarized calculation?
   LNONCOLLINEAR =      F non collinear calculations
   LSORBIT =      F    spin-orbit coupling
   INIWAV =      1    electr: 0-lowe 1-rand  2-diag
   LASPH  =      T    aspherical Exc in radial PAW
   METAGGA=      F    non-selfconsistent MetaGGA calc.

 Electronic Relaxation 1
   ENCUT  =  500.0 eV  36.75 Ry    6.06 a.u.  23.52 22.54 36.33*2*pi/ulx,y,z
   ENINI  =  500.0     initial cutoff
   ENAUG  =  644.9 eV  augmentation charge cutoff
   NELM   =    250;   NELMIN=  2; NELMDL=  0     # of ELM steps
   EDIFF  = 0.1E-03   stopping-criterion for ELM
   LREAL  =      F    real-space projection
   NLSPLINE    = F    spline interpolate recip. space projectors
   LCOMPAT=      F    compatible to vasp.4.4
   GGA_COMPAT  = T    GGA compatible to vasp.4.4-vasp.4.6
   LMAXPAW     = -100 max onsite density
   LMAXMIX     =    2 max onsite mixed and CHGCAR
   VOSKOWN=      0    Vosko Wilk Nusair interpolation
   ROPT   =    0.00000   0.00000   0.00000   0.00000
 Ionic relaxation
   EDIFFG = -.3E-01   stopping-criterion for IOM
   NSW    =      0    number of steps for IOM
   NBLOCK =      1;   KBLOCK =      1    inner block; outer block
   IBRION =     -1    ionic relax: 0-MD 1-quasi-New 2-CG
   NFREE  =      1    steps in history (QN), initial steepest desc. (CG)
   ISIF   =      2    stress and relaxation
   IWAVPR =     10    prediction:  0-non 1-charg 2-wave 3-comb
   ISYM   =      3    0-nonsym 1-usesym 2-fastsym
   LCORR  =      T    Harris-Foulkes like correction to forces

   POTIM  = 0.5000    time-step for ionic-motion
   TEIN   =    0.0    initial temperature
   TEBEG  =    0.0;   TEEND  =   0.0 temperature during run
   SMASS  =  -3.00    Nose mass-parameter (am)
   estimated Nose-frequenzy (Omega)   =  0.10E-29 period in steps =****** mass=  -0.380E-26a.u.
   SCALEE = 1.0000    scale energy and forces
   NPACO  =    256;   APACO  = 16.0  distance and # of slots for P.C.
   PSTRESS=    0.0 pullay stress

  Mass of Ions in am
   POMASS =  12.01 14.00 55.85 47.88
  Ionic Valenz
   ZVAL   =   4.00  5.00  8.00  4.00
  Atomic Wigner-Seitz radii
  virtual crystal weights
   VCA    =   1.00  1.00  1.00  1.00
   NELECT =     248.0000    total number of electrons
   NUPDOWN=      -1.0000    fix difference up-down

 DOS related values:
   EMIN   =  10.00;   EMAX   =-10.00  energy-range for DOS
   EFERMI =   0.00
   ISMEAR =     0;   SIGMA  =   0.10  broadening in eV -4-tet -1-fermi 0-gaus

 Electronic relaxation 2 (details)
   IALGO  =     53    algorithm
   LDIAG  =      T    sub-space diagonalisation (order eigenvalues)
   LSUBROT=      F    optimize rotation matrix (better conditioning)
   TURBO    =      0    0=normal 1=particle mesh
   IRESTART =      0    0=no restart 2=restart with 2 vectors
   NREBOOT  =      0    no. of reboots
   NMIN     =      0    reboot dimension
   EREF     =   0.00    reference energy to select bands
   IMIX   =      4    mixing-type and parameters
     AMIX     =   0.40;   BMIX     =  1.00
     AMIX_MAG =   1.60;   BMIX_MAG =  1.00
     AMIN     =   0.10
     WC   =   100.;   INIMIX=   1;  MIXPRE=   1;  MAXMIX= -45

 Intra band minimization:
   WEIMIN = 0.0000     energy-eigenvalue tresh-hold
   EBREAK =  0.16E-06  absolut break condition
[...]
   46        0.865   1.776   0.000   2.641
   47        0.865   1.774   0.000   2.639
   48        0.864   1.773   0.000   2.636
   49        0.866   1.765   0.000   2.632
   50        0.866   1.770   0.000   2.636
   51        0.864   1.765   0.000   2.629
   52        0.861   1.756   0.000   2.618
   53        0.864   1.768   0.000   2.632
   54        0.865   1.768   0.000   2.634
   55        1.228   2.677   0.000   3.905
   56        1.228   2.685   0.000   3.913
   57        1.232   2.679   0.000   3.911
   58        1.232   2.684   0.000   3.916
   59        0.479   0.439   6.418   7.336
   60        0.507   0.554   2.930   3.991
tot         52.461 106.688   9.348 168.497

 magnetization (x)

[...]

  FORCE on cell =-STRESS in cart. coord.  units (eV):
  Direction    XX          YY          ZZ          XY          YZ          ZX
  Alpha Z   106.92231   106.92231   106.92231
  Ewald   47476.18038 47689.37878-55608.34078   106.62920    78.93103    42.57323
  Hartree 46952.17318 47050.90251-46205.96929    29.48676    54.55967    31.31743
  E(xc)    -717.28294  -718.51140  -729.95079    -1.10440     0.22510     0.13016
  Local  -97093.32933-97383.93899 98668.59487  -118.45373  -132.16758   -73.43728
  n-local  -188.72393  -190.91924  -182.62748    -1.80301    -1.41564    -0.80804
  augment    22.16938    22.72521    22.07210     0.49421     0.28797     0.10440
  Kinetic  3694.10281  3678.77919  4192.29020    -8.72472    -0.14319     0.11307
  Fock     -295.68581  -298.57133  -265.72526    -2.28185     0.11126     0.07246
  Total     -43.47395   -43.23294    -2.73413     4.24247     0.38860     0.06543
  in kB     -21.92494   -21.80340    -1.37889     2.13958     0.19598     0.03300

 VOLUME and BASIS-vectors are now :
  energy-cutoff  :      500.00
  volume of cell :     3176.88
      direct lattice vectors                 reciprocal lattice vectors
    12.899300000  0.000000000  0.000000000     0.077523587  0.000783167 -0.000019615
    -0.124863223 12.359869313  0.000000000     0.000000000  0.080907004  0.001188942
     0.007999692 -0.292816663 19.926047015     0.000000000  0.000000000  0.050185569

  length of vectors
    12.899300000 12.360500000 19.928200000     0.077527545  0.080915740  0.050185569

 FORCES acting on ions:
    Electron-Ion                     Ewald-Force                    Non-Local-Force
   0.344E+01 -.415E+01 0.216E+02   -.370E+01 0.427E+01 -.217E+02   0.254E+00 -.368E+00 0.100E+00
   0.301E+01 -.128E+01 0.231E+02   -.302E+01 0.115E+01 -.231E+02   0.259E-01 -.117E-01 0.596E-01
   0.148E+01 -.137E+01 0.226E+02   -.158E+01 0.154E+01 -.226E+02   0.108E+00 -.281E-01 -.691E-01
   0.585E+01 0.152E+01 0.165E+02   -.611E+01 -.130E+01 -.164E+02   0.177E+00 0.435E-01 -.919E-01
   0.521E+01 0.683E+01 0.117E+02   -.532E+01 -.712E+01 -.118E+02   0.549E-01 -.850E-01 0.936E-01
   0.578E+01 0.725E+01 0.290E+02   -.587E+01 -.773E+01 -.291E+02   0.713E-01 0.358E+00 0.102E+00
   0.832E+00 0.793E+01 0.187E+02   -.844E+00 -.798E+01 -.186E+02   0.437E-01 0.164E+00 -.695E-01
   0.110E+02 0.176E+02 0.346E+01   -.110E+02 -.177E+02 -.384E+01   0.179E+00 0.278E+00 0.375E+00
   0.201E+02 0.442E+02 0.204E+02   -.219E+02 -.475E+02 -.215E+02   0.174E+01 0.315E+01 0.113E+01
   0.116E+02 0.296E+01 0.295E+02   -.120E+02 -.321E+01 -.294E+02   0.314E+00 0.855E-01 -.138E+00
   0.131E+02 0.119E+02 0.320E+02   -.136E+02 -.122E+02 -.322E+02   0.447E+00 0.437E+00 0.149E+00
   0.140E+02 -.334E+02 0.160E+02   -.160E+02 0.362E+02 -.168E+02   0.184E+01 -.265E+01 0.755E+00
   0.709E+01 -.392E+01 0.382E+02   -.729E+01 0.418E+01 -.383E+02   0.179E+00 -.370E+00 0.682E-01
   0.151E+02 -.857E+01 0.364E+02   -.156E+02 0.911E+01 -.366E+02   0.509E+00 -.319E+00 0.229E+00
   0.233E+02 -.134E+01 0.123E+02   -.274E+02 0.137E+01 -.134E+02   0.384E+01 0.387E-01 0.945E+00
   0.914E+01 -.119E+02 0.323E+02   -.984E+01 0.121E+02 -.325E+02   0.647E+00 -.372E+00 0.242E+00
   0.392E+01 -.509E+01 0.314E+02   -.399E+01 0.514E+01 -.315E+02   0.432E-01 -.166E+00 0.839E-01
   0.525E+01 -.761E+01 0.359E+02   -.573E+01 0.776E+01 -.360E+02   0.474E+00 -.536E-01 0.503E-01
   0.375E+01 -.100E+02 0.216E+02   -.416E+01 0.106E+02 -.215E+02   0.284E+00 -.387E+00 -.132E+00
   -.448E+01 0.339E+01 0.138E+02   0.462E+01 -.341E+01 -.137E+02   -.189E+00 -.124E+00 -.757E-01
   0.146E+01 0.775E+01 0.242E+02   -.183E+01 -.794E+01 -.243E+02   0.361E+00 0.149E+00 0.106E+00
   -.330E+01 -.231E+01 0.232E+02   0.362E+01 0.270E+01 -.233E+02   -.257E+00 -.295E+00 0.113E+00
   -.365E+01 0.699E+01 0.203E+02   0.385E+01 -.701E+01 -.204E+02   -.265E+00 0.250E+00 0.111E+00
   -.664E+01 0.152E+02 0.212E+02   0.691E+01 -.158E+02 -.210E+02   -.191E+00 0.316E+00 -.165E+00
   0.273E+02 0.411E+02 0.159E+02   -.293E+02 -.443E+02 -.170E+02   0.184E+01 0.297E+01 0.112E+01
   0.180E+01 0.176E+02 0.253E+02   -.188E+01 -.180E+02 -.254E+02   0.164E-01 0.459E+00 0.103E+00
   -.145E+02 0.103E+02 0.326E+02   0.151E+02 -.104E+02 -.328E+02   -.544E+00 0.340E+00 0.248E+00
   -.379E+02 -.331E+01 0.128E+02   0.414E+02 0.297E+01 -.136E+02   -.315E+01 0.236E+00 0.769E+00
   -.111E+02 0.186E+02 0.109E+02   0.131E+02 -.222E+02 -.120E+02   -.192E+01 0.336E+01 0.960E+00
   -.335E+01 -.388E+02 0.950E+01   0.561E+01 0.422E+02 -.111E+02   -.206E+01 -.321E+01 0.155E+01
   -.506E+01 -.581E+01 -.601E+01   0.525E+01 0.617E+01 0.526E+01   -.222E+00 -.437E+00 0.701E+00
   -.430E+01 -.979E+01 0.244E+02   0.425E+01 0.104E+02 -.245E+02   0.142E+00 -.751E+00 0.165E+00
   -.310E+02 -.236E+02 0.777E+01   0.328E+02 0.273E+02 -.933E+01   -.175E+01 -.328E+01 0.149E+01
   -.168E+01 0.120E+01 0.658E+01   0.191E+01 -.789E+00 -.674E+01   -.210E+00 -.242E+00 0.143E+00
   0.245E+01 -.193E+01 0.263E+02   -.240E+01 0.193E+01 -.263E+02   -.395E-01 -.951E-01 0.288E-01
   -.228E+01 0.328E+01 0.211E+02   0.243E+01 -.342E+01 -.210E+02   -.670E-01 -.101E-01 -.762E-01
   -.229E+01 0.305E+01 0.220E+02   0.239E+01 -.282E+01 -.221E+02   -.891E-01 -.231E-01 0.757E-01
   -.152E+01 0.314E+01 0.261E+02   0.151E+01 -.310E+01 -.261E+02   -.164E-01 0.741E-01 0.228E-01
   -.381E+00 0.304E+01 0.286E+02   0.449E+00 -.327E+01 -.286E+02   -.572E-01 0.683E-01 0.655E-02
   -.587E+01 0.678E+01 0.341E+02   0.628E+01 -.691E+01 -.341E+02   -.407E+00 0.482E-01 0.280E-01
   -.435E+01 0.599E+01 0.295E+02   0.444E+01 -.601E+01 -.295E+02   -.825E-01 0.107E+00 0.767E-01
   -.768E+00 0.508E+01 0.318E+02   0.790E+00 -.508E+01 -.318E+02   -.404E-02 0.156E+00 0.565E-01
   -.102E+01 0.363E+01 0.338E+02   0.113E+01 -.383E+01 -.338E+02   -.409E-01 0.678E-01 0.179E-02
   -.133E+02 0.310E+01 0.328E+02   0.139E+02 -.369E+01 -.330E+02   -.568E+00 0.392E+00 0.226E+00
   -.647E+01 0.207E+01 0.365E+02   0.668E+01 -.241E+01 -.365E+02   -.251E+00 0.422E+00 0.778E-01
   0.420E+01 -.711E+00 0.320E+02   -.436E+01 0.699E+00 -.321E+02   0.199E+00 0.562E-01 0.438E-01
   -.132E+01 -.763E+00 0.318E+02   0.151E+01 0.715E+00 -.318E+02   -.285E+00 -.250E-01 0.455E-01
   -.660E+01 -.110E+02 0.290E+02   0.727E+01 0.114E+02 -.292E+02   -.740E+00 -.418E+00 0.203E+00
   -.679E+01 -.446E+01 0.275E+02   0.729E+01 0.458E+01 -.273E+02   -.366E+00 -.355E-01 -.116E+00
   0.291E+01 -.460E+01 0.347E+02   -.292E+01 0.482E+01 -.348E+02   0.166E-01 -.443E-01 0.127E-01
   0.210E+01 -.464E+01 0.326E+02   -.200E+01 0.464E+01 -.326E+02   -.672E-01 -.150E+00 0.605E-01
   0.966E+00 -.393E+01 0.161E+02   -.819E+00 0.397E+01 -.160E+02   -.982E-01 -.211E+00 -.487E-01
   -.166E+01 -.644E+01 0.280E+02   0.183E+01 0.698E+01 -.281E+02   -.197E+00 -.362E+00 0.129E+00
   0.140E+01 -.204E+01 0.302E+02   -.142E+01 0.227E+01 -.302E+02   0.309E-01 -.956E-01 0.226E-01
   -.274E+02 -.159E+02 -.165E+02   0.475E+02 0.170E+02 0.194E+02   -.189E+02 -.974E+00 -.283E+01
   -.533E+00 -.296E+02 -.281E+02   -.877E+01 0.474E+02 0.312E+02   0.877E+01 -.166E+02 -.307E+01
   0.602E+02 -.810E+01 -.546E+02   -.800E+02 0.659E+01 0.579E+02   0.184E+02 0.131E+01 -.277E+01
   -.374E+02 0.487E+02 -.567E+02   0.463E+02 -.667E+02 0.601E+02   -.829E+01 0.166E+02 -.269E+01
   0.188E+02 0.243E+02 -.743E+03   -.247E+02 -.349E+02 0.739E+03   0.355E+01 0.656E+01 0.368E+01
   -.422E+02 -.729E+02 -.388E+03   0.454E+02 0.786E+02 0.384E+03   -.415E+00 -.785E+00 0.433E+01
   -.260E+01 -.513E+01 -.844E+01   0.455E-12 -.568E-13 -.284E-12   0.280E+01 0.544E+01 0.875E+01

 POSITION                                       TOTAL-FORCE (eV/Angst)
      2.85351     -0.10920      9.88078         0.007916     -0.266404      0.004126
      0.70751      1.11572      9.82558         0.020204     -0.149544      0.005504
      1.42027     -0.11810      9.83310         0.015661      0.147627      0.003626
      3.57106      1.13212      9.92202        -0.070260      0.259809      0.011177
      2.86563      2.38917      9.96059        -0.058804     -0.382171     -0.002503
      0.68899      3.58184      9.85043        -0.005806     -0.102395      0.019241
      1.42530      2.35962      9.87767         0.029518      0.129227      0.012233
      3.58068      3.64143     10.09575         0.171140      0.169613      0.003474
      2.80063      4.88148     10.10478         0.026996      0.039115      0.047999
      0.63635      6.05549      9.87571        -0.029011     -0.153861      0.014994
      1.37971      4.83053      9.91771         0.006921      0.117433      0.044510
      2.73353      7.29654     10.10999        -0.067266      0.037427      0.010182
      0.59889      8.53280      9.82292        -0.009926     -0.124046      0.021848
      1.32514      7.30487      9.90535         0.052174      0.196900      0.062993
      3.43433      8.55725     10.11413        -0.055856      0.077307     -0.042169
      2.72070      9.77305      9.92516        -0.018762     -0.188268      0.063791
      0.58169     11.00417      9.80027        -0.020562     -0.123970      0.020894
      1.29764      9.77079      9.83090         0.019615      0.089887      0.017775
      3.44054     11.01228      9.92284        -0.110753      0.234654      0.009595
      7.02770     12.18643      9.92860        -0.054677     -0.142747      0.004552
      5.00084      1.10260      9.92544         0.015116     -0.024700      0.017931
      5.71989     -0.14006      9.92466         0.051629      0.075816      0.014170
      7.86871      1.06771      9.89033        -0.072930      0.249218      0.013618
      7.15426      2.30605      9.93526         0.069730     -0.256010      0.008617
      5.04333      3.58474     10.13704        -0.049270     -0.017680      0.036405
      5.72368      2.33253      9.97667        -0.064190      0.054926      0.064233
      7.87050      3.54075      9.93836         0.031546      0.279560      0.097221
      7.14649      4.75522     10.13450         0.186851     -0.101829      0.002096
      7.86494      6.00595     10.11707        -0.027468     -0.034299     -0.028378
      7.80111      8.44121     10.10128         0.090523      0.004019      0.041884
      7.01354      9.67468     10.09373        -0.043711     -0.092031     -0.020119
      4.87194     10.99258      9.96542         0.106042     -0.208649      0.107771
      5.55448      9.74003     10.12016        -0.064800      0.210494      0.023852
      7.73393     10.93595      9.96662         0.012656      0.159808     -0.007978
     11.45086     -0.14150      9.79354         0.016679     -0.104711      0.013378
      9.29892      1.07596      9.84254         0.083291     -0.148293      0.000078
      9.88867     12.20228      9.82986        -0.004200      0.202176      0.008324
     12.16919      1.09919      9.79476        -0.033968      0.121445      0.008911
     11.44446      2.32734      9.79287         0.009967     -0.164492      0.007874
      9.29482      3.54509      9.84429        -0.012945     -0.074102      0.011133
     10.01336      2.31396      9.81194         0.002200      0.088495      0.010456
     12.15428      3.56864      9.80085         0.015003      0.163921      0.017234
     11.42314      4.79539      9.80376         0.066171     -0.129688      0.013812
      9.26914      6.00654      9.91523         0.011931     -0.172874      0.030998
      9.99718      4.78081      9.83335        -0.055365      0.109778      0.025605
     12.11477      6.04164      9.81900         0.044523      0.044374      0.010129
     11.37923      7.27269      9.81818        -0.118465     -0.071205      0.009332
      9.22076      8.48780      9.91717        -0.111892     -0.079679      0.078961
      9.95797      7.25927      9.87861         0.116229      0.086213      0.011551
     12.07078      8.51918      9.79701         0.002485      0.171816      0.011549
     11.34128      9.74792      9.79450         0.030852     -0.159812      0.019284
      9.17053     10.95948      9.88223         0.047663     -0.185594      0.000802
      9.90966      9.73571      9.84890        -0.037756      0.160837      0.018520
     12.05013     10.99044      9.78484         0.009458      0.138062      0.017226
      3.39975      6.10737     10.32986        -0.447586      0.038049     -0.143720
      5.78939      4.72523     10.36555         0.221657     -0.312444     -0.154522
      7.20884      7.20841     10.33392         0.141531     -0.080743      0.279946
      4.79905      8.60043     10.34180        -0.120389     -0.038969      0.399310
      4.83934      5.86639     11.62945        -0.882103     -1.464142     -0.257121
      5.77793      7.50050     11.71574         0.914841      1.697343     -1.154215
    total drift:                                0.005564      0.008558     -0.002666

  FREE ENERGIE OF THE ION-ELECTRON SYSTEM (eV)
  free  energy   TOTEN  =      -629.23120329 eV

  energy  without entropy=     -629.21333241  energy(sigma->0) =     -629.22226785

 stress matrix after NEB project (eV)
    -43.47395      4.24246      0.06543
      4.24247    -43.23294      0.38883
      0.06530      0.38860     -2.73413
  FORCES: max atom, RMS     2.247247    0.414741
  FORCE total and by dimension    3.212573    1.697343
  Stress total and by dimension   61.667286   43.473948
 writing wavefunctions

 total charge

[...]

 magnetization (x)

# of ion       s       p       d       tot
    1       -0.000  -0.002   0.000  -0.002
    2       -0.000  -0.004   0.000  -0.004
    3        0.000   0.006   0.000   0.006
    4        0.001   0.009   0.000   0.010
    5       -0.001  -0.010   0.000  -0.010
    6       -0.000  -0.003   0.000  -0.003
    7        0.001   0.008   0.000   0.008
    8        0.002   0.028   0.000   0.030
    9       -0.001  -0.008   0.000  -0.009
   10       -0.000  -0.005   0.000  -0.006
   11        0.001   0.006   0.000   0.007
   12        0.000  -0.002   0.000  -0.002
   13        0.000  -0.000   0.000  -0.000
   14        0.001   0.003   0.000   0.004
   15        0.000   0.001   0.000   0.002
   16       -0.000  -0.002   0.000  -0.002
   17       -0.000  -0.003   0.000  -0.003
   18        0.000   0.004   0.000   0.005
   19        0.000  -0.001   0.000  -0.001
   20       -0.000   0.000   0.000   0.000
   21       -0.000  -0.004   0.000  -0.004
   22        0.000   0.002   0.000   0.002
   23        0.000   0.004   0.000   0.004
   24       -0.000  -0.005   0.000  -0.006
   25       -0.001  -0.008   0.000  -0.009
   26        0.001   0.005   0.000   0.006
   27        0.001   0.004   0.000   0.005
   28       -0.000  -0.004   0.000  -0.004
   29        0.000   0.005   0.000   0.005
   30       -0.001  -0.005   0.000  -0.006
   31       -0.000   0.007   0.000   0.007
   32       -0.000  -0.001   0.000  -0.001
   33       -0.001  -0.004   0.000  -0.005
   34       -0.000  -0.001   0.000  -0.001
   35       -0.000  -0.001   0.000  -0.001
   36       -0.000  -0.001   0.000  -0.001
   37        0.000   0.001   0.000   0.001
   38        0.000   0.003   0.000   0.004
   39       -0.000  -0.003   0.000  -0.003
   40       -0.000  -0.001   0.000  -0.001
   41        0.000   0.002   0.000   0.002
   42        0.000   0.002   0.000   0.003
   43       -0.000  -0.003   0.000  -0.003
   44       -0.000  -0.003   0.000  -0.003
   45        0.000   0.005   0.000   0.005
   46        0.000   0.005   0.000   0.005
   47       -0.000  -0.001   0.000  -0.002
   48       -0.000   0.001   0.000   0.000
   49        0.000   0.001   0.000   0.001
   50        0.000   0.002   0.000   0.002
   51       -0.000  -0.002   0.000  -0.002
   52       -0.000   0.000   0.000   0.000
   53        0.000   0.002   0.000   0.002
   54        0.000   0.002   0.000   0.002
   55        0.009   0.063   0.000   0.072
   56        0.010   0.065   0.000   0.074
   57        0.006   0.040   0.000   0.046
   58        0.006   0.039   0.000   0.045
   59        0.093   0.084   2.628   2.806
   60        0.030   0.069  -1.034  -0.935
tot          0.156   0.393   1.594   2.143