 vasp.5.4.4.18Apr17-6-g9f103f2a35 (build Feb 25 2019 10:51:38) complex

 executed on             LinuxIFC date 2021.08.09  13:46:15

 INCAR:
 POTCAR:    PAW_PBE C 08Apr2002
 POTCAR:    PAW_PBE N 08Apr2002
 POTCAR:    PAW_PBE Fe 06Sep2000
 POTCAR:    PAW_PBE Sc_sv 07Sep2000

 POTCAR:    PAW_PBE C 08Apr2002
   VRHFIN =C: s2p2

   TITEL  = PAW_PBE C 08Apr2002
   POMASS =   12.011; ZVAL   =    4.000    mass and valenz
   ENMAX  =  400.000; ENMIN  =  300.000 eV

 POTCAR:    PAW_PBE N 08Apr2002
   VRHFIN =N: s2p3

   TITEL  = PAW_PBE N 08Apr2002
   POMASS =   14.001; ZVAL   =    5.000    mass and valenz
   ENMAX  =  400.000; ENMIN  =  300.000 eV

 POTCAR:    PAW_PBE Fe 06Sep2000
   VRHFIN =Fe:  d7 s1

   TITEL  = PAW_PBE Fe 06Sep2000
   POMASS =   55.847; ZVAL   =    8.000    mass and valenz
   ENMAX  =  267.882; ENMIN  =  200.911 eV

 POTCAR:    PAW_PBE Sc_sv 07Sep2000
   VRHFIN =Sc: 3p4s3d

   TITEL  = PAW_PBE Sc_sv 07Sep2000
   POMASS =   44.956; ZVAL   =   11.000    mass and valenz
   ENMAX  =  222.660; ENMIN  =  166.995 eV

  PAW_PBE C 08Apr2002                   :
  PAW_PBE N 08Apr2002                   :
  PAW_PBE Fe 06Sep2000                  :
  PAW_PBE Sc_sv 07Sep2000               :

 POSCAR:  C  N Fe Sc
  positions in cartesian coordinates
 exchange correlation table for  LEXCH =        8
   RHO(1)=    0.500       N(1)  =     2000
   RHO(2)=  100.500       N(2)  =     4000

 VTST: version 3.2, (02/03/18)

 CHAIN: initializing optimizer

 OPT: Using VASP Conjugate-Gradient optimizer
 CHAIN: Read ICHAIN            0

 POSCAR:  C  N Fe Sc
  positions in cartesian coordinates

 ion  position               nearest neighbor table
   1  0.222  0.998  0.500-   4 1.42  19 1.43   3 1.43
   2  0.053  0.100  0.503-   7 1.42  34 1.43   3 1.43
   3  0.110  1.000  0.502-  17 1.42   2 1.43   1 1.43
   4  0.275  0.098  0.497-   5 1.42   1 1.42  21 1.43
   5  0.217  0.197  0.497-   8 1.41   4 1.42   7 1.42
   6  0.052  0.301  0.502-   7 1.42  11 1.43  38 1.43
   7  0.106  0.200  0.501-   2 1.42   6 1.42   5 1.42
   8  0.272  0.295  0.492-  51 1.37   5 1.41   9 1.43
   9  0.219  0.398  0.494-  50 1.40  11 1.42   8 1.43
  10  0.056  0.501  0.503-  11 1.41  41 1.43  14 1.44
  11  0.109  0.399  0.500-  10 1.41   9 1.42   6 1.43
  12  0.229  0.594  0.498-  50 1.39  14 1.45  15 1.47
  13  0.060  0.700  0.504-  18 1.42  14 1.43  45 1.44
  14  0.116  0.599  0.502-  13 1.43  10 1.44  12 1.45
  15  0.289  0.694  0.501-  53 1.41  16 1.45  12 1.47
  16  0.228  0.795  0.502-  19 1.43  18 1.44  15 1.45
  17  0.057  0.900  0.504-   3 1.42  49 1.43  18 1.44
  18  0.115  0.798  0.503-  13 1.42  17 1.44  16 1.44
  19  0.280  0.897  0.500-   1 1.43  28 1.43  16 1.43
  20  0.554  0.004  0.497-  30 1.42  22 1.42  23 1.44
  21  0.386  0.099  0.494-  22 1.42   4 1.43  25 1.44
  22  0.444  1.000  0.497-  21 1.42  20 1.42  28 1.44
  23  0.607  0.106  0.496-  32 1.43  24 1.43  20 1.44
  24  0.550  0.207  0.489-  23 1.43  25 1.45  26 1.46
  25  0.437  0.202  0.489-  51 1.36  21 1.44  24 1.45
  26  0.604  0.310  0.489-  52 1.35  36 1.46  24 1.46
  27  0.560  0.801  0.502-  54 1.37  30 1.43  29 1.45
  28  0.391  0.898  0.499-  19 1.43  29 1.43  22 1.44
  29  0.446  0.796  0.501-  53 1.40  28 1.43  27 1.45
  30  0.611  0.903  0.501-  20 1.42  47 1.43  27 1.43
  31  0.888  0.003  0.504-  34 1.42  49 1.43  33 1.43
  32  0.719  0.107  0.500-  23 1.43  33 1.44  37 1.44
  33  0.776  0.005  0.502-  47 1.42  31 1.43  32 1.44
  34  0.941  0.103  0.504-  31 1.42   2 1.43  35 1.43
  35  0.884  0.205  0.504-  38 1.43  34 1.43  37 1.44
  36  0.716  0.311  0.501-  37 1.44  26 1.46  40 1.46
  37  0.772  0.208  0.502-  32 1.44  35 1.44  36 1.44
  38  0.940  0.304  0.504-  39 1.43  35 1.43   6 1.43
  39  0.885  0.406  0.505-  38 1.43  41 1.44  40 1.45
  40  0.773  0.411  0.507-  55 1.38  39 1.45  36 1.46
  41  0.945  0.503  0.506-  42 1.42  10 1.43  39 1.44
  42  0.890  0.605  0.507-  41 1.42  44 1.42  45 1.42
  43  0.724  0.707  0.507-  54 1.38  48 1.42  44 1.43
  44  0.780  0.605  0.510-  55 1.39  42 1.42  43 1.43
  45  0.948  0.702  0.506-  46 1.42  42 1.42  13 1.44
  46  0.891  0.803  0.506-  45 1.42  49 1.42  48 1.43
  47  0.723  0.905  0.502-  33 1.42  48 1.42  30 1.43
  48  0.780  0.805  0.505-  43 1.42  47 1.42  46 1.43
  49  0.946  0.903  0.504-  46 1.42  31 1.43  17 1.43
  50  0.277  0.492  0.489-  12 1.39   9 1.40  56 1.95
  51  0.378  0.295  0.484-  25 1.36   8 1.37  56 1.94
  52  0.552  0.405  0.480-  26 1.35  56 1.84  57 2.00
  53  0.398  0.695  0.504-  29 1.40  15 1.41  57 2.60
  54  0.617  0.706  0.504-  27 1.37  43 1.38  57 2.12
  55  0.722  0.511  0.513-  40 1.38  44 1.39  57 2.27
  56  0.415  0.441  0.460-  52 1.84  51 1.94  50 1.95  57 2.54
  57  0.549  0.553  0.522-  52 2.00  54 2.12  55 2.27  56 2.54  53 2.60

  LATTYP: Found a triclinic cell.
 ALAT       =    12.3134515889
 B/A-ratio  =     1.0417655486
 C/A-ratio  =     1.6338063665
 COS(alpha) =     0.0006141404
 COS(beta)  =     0.0010991464
 COS(gamma) =     0.0223861696

  Lattice vectors:

 A1 = (   0.1382734090,  12.3126736507,  -0.0061698968)
 A2 = (  12.8269307909,   0.1431318798,  -0.0027777230)
 A3 = (   0.0078660486,   0.0119444110, -20.1177905161)

Analysis of symmetry for initial positions (statically):
 Subroutine PRICEL returns:
 Original cell was already a primitive cell.

 Routine SETGRP: Setting up the symmetry group for a
 triclinic supercell.

 Subroutine GETGRP returns: Found  1 space group operations
 (whereof  1 operations were pure point group operations)
 out of a pool of  2 trial point group operations.

The static configuration has the point symmetry C_1 .

Analysis of symmetry for dynamics (positions and initial velocities):
 Subroutine PRICEL returns:
 Original cell was already a primitive cell.

[...]

The dynamic configuration has the point symmetry C_1 .

Analysis of structural, dynamic, and magnetic symmetry:
 Subroutine PRICEL returns:
 Original cell was already a primitive cell.

 Routine SETGRP: Setting up the symmetry group for a
 triclinic supercell.

 Subroutine GETGRP returns: Found  1 space group operations
 (whereof  1 operations were pure point group operations)
 out of a pool of  2 trial point group operations.

The magnetic configuration has the point symmetry C_1 .

 Subroutine INISYM returns: Found  1 space group operations
 (whereof  1 operations are pure point group operations),
 and found     1 'primitive' translations

 KPOINTS: KPOINTS created by Atomic Simulation Env

Automatic generation of k-mesh.
Space group operators:
 irot       det(A)        alpha          n_x          n_y          n_z        tau_x        tau_y        tau_z
    1     1.000000     0.000001     1.000000     0.000000     0.000000     0.000000     0.000000     0.000000

 Subroutine IBZKPT returns following result:

 Found      2 irreducible k-points:

 Following reciprocal coordinates:
            Coordinates               Weight
  0.250000  0.250000  0.000000      2.000000
 -0.250000  0.250000 -0.000000      2.000000

 Following cartesian coordinates:
            Coordinates               Weight
  0.019266  0.020088  0.000019      2.000000
 -0.019719  0.020526  0.000004      2.000000

 Subroutine IBZKPT_HF returns following result:

 Found      4 k-points in 1st BZ
 the following      4 k-points will be used (e.g. in the exchange kernel)
 Following reciprocal coordinates:   # in IRBZ
  0.250000  0.250000  0.000000    0.25000000   1 t-inv F
 -0.250000  0.250000 -0.000000    0.25000000   2 t-inv F
 -0.250000 -0.250000 -0.000000    0.25000000   1 t-inv T
  0.250000 -0.250000  0.000000    0.25000000   2 t-inv T

 SYSTEM =  unknown system
 POSCAR =   C  N Fe Sc

 Startparameter for this run:
   NWRITE =      2    write-flag & timer
   PREC   = accura    normal or accurate (medium, high low for compatibility)
   ISTART =      1    job   : 0-new  1-cont  2-samecut
   ICHARG =      0    charge: 1-file 2-atom 10-const
   ISPIN  =      2    spin polarized calculation?
   LNONCOLLINEAR =      F non collinear calculations
   LSORBIT =      F    spin-orbit coupling
   INIWAV =      1    electr: 0-lowe 1-rand  2-diag
   LASPH  =      T    aspherical Exc in radial PAW
   METAGGA=      F    non-selfconsistent MetaGGA calc.

 Electronic Relaxation 1
   ENCUT  =  500.0 eV  36.75 Ry    6.06 a.u.  23.39 22.45 36.68*2*pi/ulx,y,z
   ENINI  =  500.0     initial cutoff
   ENAUG  =  644.9 eV  augmentation charge cutoff
   NELM   =    250;   NELMIN=  2; NELMDL=  0     # of ELM steps
   EDIFF  = 0.1E-03   stopping-criterion for ELM
   LREAL  =      F    real-space projection
   NLSPLINE    = F    spline interpolate recip. space projectors
   LCOMPAT=      F    compatible to vasp.4.4
   GGA_COMPAT  = T    GGA compatible to vasp.4.4-vasp.4.6
   LMAXPAW     = -100 max onsite density
   LMAXMIX     =    2 max onsite mixed and CHGCAR
   VOSKOWN=      0    Vosko Wilk Nusair interpolation
   ROPT   =    0.00000   0.00000   0.00000   0.00000
 Ionic relaxation
   EDIFFG = -.3E-01   stopping-criterion for IOM
   NSW    =      0    number of steps for IOM
   NBLOCK =      1;   KBLOCK =      1    inner block; outer block
   IBRION =     -1    ionic relax: 0-MD 1-quasi-New 2-CG
   NFREE  =      1    steps in history (QN), initial steepest desc. (CG)
   ISIF   =      2    stress and relaxation
   IWAVPR =     10    prediction:  0-non 1-charg 2-wave 3-comb
   ISYM   =      3    0-nonsym 1-usesym 2-fastsym
   LCORR  =      T    Harris-Foulkes like correction to forces

   POTIM  = 0.5000    time-step for ionic-motion
   TEIN   =    0.0    initial temperature
   TEBEG  =    0.0;   TEEND  =   0.0 temperature during run
   SMASS  =  -3.00    Nose mass-parameter (am)
   estimated Nose-frequenzy (Omega)   =  0.10E-29 period in steps =****** mass=  -0.376E-26a.u.
   SCALEE = 1.0000    scale energy and forces
   NPACO  =    256;   APACO  = 16.0  distance and # of slots for P.C.
   PSTRESS=    0.0 pullay stress

  Mass of Ions in am
   POMASS =  12.01 14.00 55.85 44.96
  Ionic Valenz
   ZVAL   =   4.00  5.00  8.00 11.00
  Atomic Wigner-Seitz radii
  virtual crystal weights
   VCA    =   1.00  1.00  1.00  1.00
   NELECT =     245.0000    total number of electrons
   NUPDOWN=      -1.0000    fix difference up-down

 DOS related values:
   EMIN   =  10.00;   EMAX   =-10.00  energy-range for DOS
   EFERMI =   0.00
   ISMEAR =     0;   SIGMA  =   0.10  broadening in eV -4-tet -1-fermi 0-gaus

 Electronic relaxation 2 (details)
   IALGO  =     53    algorithm
   LDIAG  =      T    sub-space diagonalisation (order eigenvalues)
   LSUBROT=      F    optimize rotation matrix (better conditioning)
   TURBO    =      0    0=normal 1=particle mesh
   IRESTART =      0    0=no restart 2=restart with 2 vectors
   NREBOOT  =      0    no. of reboots
   NMIN     =      0    reboot dimension
   EREF     =   0.00    reference energy to select bands
   IMIX   =      4    mixing-type and parameters
     AMIX     =   0.40;   BMIX     =  1.00
     AMIX_MAG =   1.60;   BMIX_MAG =  1.00
     AMIN     =   0.10
     WC   =   100.;   INIMIX=   1;  MIXPRE=   1;  MAXMIX= -45

 Intra band minimization:
   WEIMIN = 0.0000     energy-eigenvalue tresh-hold
   EBREAK =  0.16E-06  absolut break condition
[...]
   27        0.858   1.732   0.000   2.589
   28        0.863   1.763   0.000   2.626
   29        0.853   1.714   0.000   2.567
   30        0.866   1.770   0.000   2.636
   31        0.865   1.774   0.000   2.639
   32        0.861   1.759   0.000   2.620
   33        0.864   1.766   0.000   2.630
   34        0.867   1.769   0.000   2.635
   35        0.863   1.765   0.000   2.628
   36        0.852   1.745   0.000   2.596
   37        0.861   1.740   0.000   2.601
   38        0.866   1.768   0.000   2.634
   39        0.862   1.764   0.000   2.625
   40        0.852   1.693   0.000   2.546
   41        0.868   1.768   0.000   2.636
   42        0.869   1.790   0.000   2.659
   43        0.863   1.758   0.000   2.621
   44        0.861   1.752   0.000   2.613
   45        0.864   1.775   0.000   2.639
   46        0.868   1.783   0.000   2.651
   47        0.867   1.771   0.000   2.638
   48        0.869   1.783   0.000   2.652
   49        0.866   1.768   0.000   2.634
   50        1.222   2.662   0.000   3.884
   51        1.239   2.704   0.000   3.943
   52        1.247   2.619   0.000   3.867
   53        1.225   2.597   0.000   3.822
   54        1.235   2.703   0.000   3.938
   55        1.232   2.649   0.000   3.881
   56        0.466   0.565   6.159   7.189
   57        2.190   6.187   1.074   9.451
tot         52.324 108.877   7.233 168.434

 magnetization (x)

[...]

  FORCE on cell =-STRESS in cart. coord.  units (eV):
  Direction    XX          YY          ZZ          XY          YZ          ZX
  Alpha Z   104.65935   104.65935   104.65935
  Ewald   48226.33570 48316.96397-56855.31667   -58.19515  -102.59832   -70.93182
  Hartree 47942.95535 47963.65421-47176.78412   -14.71568   -46.26727   -28.38285
  E(xc)    -720.82674  -720.35302  -734.76811    -0.16741    -0.21830    -0.27959
  Local  -98798.45105-98899.78339100942.72153    61.34321   137.08727    93.22306
  n-local  -186.19778  -182.94885  -188.00794     0.85977     1.78737     0.43086
  augment    46.29852    47.77484    47.48350     0.89500     1.97541     1.08120
  Kinetic  3688.00172  3675.77263  4179.48197    12.65421    10.11729     6.76311
  Fock     -346.10449  -349.09570  -320.18215    -1.26147    -1.57886    -0.90690
  Total     -43.32943   -43.35597    -0.71265     1.41248     0.30459     0.99707
  in kB     -21.85208   -21.86546    -0.35941     0.71235     0.15361     0.50285

 VOLUME and BASIS-vectors are now :
  energy-cutoff  :      500.00
  volume of cell :     3176.88
      direct lattice vectors                 reciprocal lattice vectors
    12.826930791  0.143131880 -0.002777723     0.077970750 -0.000875610  0.000029967
     0.138273409 12.312673651 -0.006169897    -0.000906381  0.081227331  0.000047872
    -0.007866049 -0.011944411 20.117790516     0.000010488  0.000024791  0.049707267

  length of vectors
    12.827729650 12.313451589 20.117795600     0.077975672  0.081232402  0.049707274

 FORCES acting on ions:
    Electron-Ion                     Ewald-Force                    Non-Local-Force
   0.381E+01 0.746E+01 -.407E+01   -.415E+01 -.757E+01 0.411E+01   0.364E+00 0.843E-01 -.463E-01
   0.477E+01 0.647E+01 -.123E+02   -.493E+01 -.667E+01 0.123E+02   0.112E+00 0.131E+00 -.392E-01
   0.115E+01 0.892E+00 -.848E+01   -.132E+01 -.907E+00 0.843E+01   0.117E+00 0.184E-01 0.384E-01
   0.501E+01 0.150E+02 0.308E+01   -.516E+01 -.153E+02 -.320E+01   0.133E+00 0.393E+00 0.109E+00
   0.162E+02 0.151E+02 -.370E+01   -.169E+02 -.153E+02 0.380E+01   0.544E+00 0.259E+00 -.120E+00
   0.941E+01 0.125E+01 -.111E+02   -.966E+01 -.160E+01 0.110E+02   0.262E+00 0.275E+00 0.344E-01
   0.830E+01 0.600E+01 -.107E+02   -.878E+01 -.601E+01 0.107E+02   0.485E+00 0.658E-01 -.155E-01
   0.440E+02 0.126E+02 0.941E+01   -.478E+02 -.128E+02 -.879E+01   0.355E+01 0.274E+00 -.589E+00
   0.316E+02 0.111E+02 0.605E+01   -.337E+02 -.140E+02 -.557E+01   0.195E+01 0.257E+01 -.459E+00
   0.559E+01 -.988E+01 -.113E+02   -.590E+01 0.101E+02 0.112E+02   0.425E-01 -.261E+00 0.138E+00
   0.152E+02 0.522E+01 -.860E+01   -.157E+02 -.549E+01 0.865E+01   0.629E+00 0.232E+00 -.926E-01
   0.233E+01 -.406E+02 -.114E+01   -.396E+01 0.441E+02 0.148E+01   0.143E+01 -.316E+01 -.285E+00
   -.203E+00 -.329E+01 -.153E+02   0.191E+00 0.352E+01 0.153E+02   0.669E-01 -.191E+00 -.433E-01
   -.224E+00 -.827E+01 -.125E+02   0.252E+00 0.872E+01 0.124E+02   0.128E+00 -.345E+00 -.178E-01
   0.195E+02 0.849E+01 -.674E+01   -.223E+02 -.854E+01 0.667E+01   0.251E+01 -.447E-01 0.801E-01
   0.642E+01 0.342E+01 -.587E+01   -.675E+01 -.375E+01 0.591E+01   0.305E+00 0.280E+00 -.237E-01
   -.837E-01 0.477E+01 -.101E+02   0.796E-01 -.472E+01 0.101E+02   -.428E-01 0.404E-02 -.184E-01
   -.409E+01 -.474E+01 -.781E+01   0.387E+01 0.464E+01 0.772E+01   0.214E+00 0.235E-01 0.963E-01
   0.629E+01 0.647E+00 -.216E+01   -.650E+01 -.500E+00 0.219E+01   0.206E+00 -.783E-01 -.239E-01
   -.469E+01 -.550E+01 0.822E+01   0.466E+01 0.577E+01 -.829E+01   0.203E-01 -.267E+00 0.672E-01
   -.388E+01 0.140E+02 0.965E+01   0.403E+01 -.145E+02 -.952E+01   -.135E+00 0.475E+00 -.146E+00
   0.191E+01 0.791E+01 0.925E+01   -.145E+01 -.794E+01 -.929E+01   -.397E+00 0.453E-01 0.412E-01
   -.443E+01 0.501E+01 0.114E+02   0.456E+01 -.498E+01 -.113E+02   -.499E-01 -.847E-01 -.114E+00
   -.132E+02 0.120E+02 0.382E+02   0.139E+02 -.116E+02 -.384E+02   -.602E+00 -.374E+00 0.342E+00
   -.301E+02 0.422E+02 0.300E+02   0.325E+02 -.452E+02 -.297E+02   -.251E+01 0.307E+01 -.268E+00
   -.323E+02 0.480E+02 0.371E+02   0.338E+02 -.505E+02 -.370E+02   -.145E+01 0.237E+01 -.128E+00
   0.262E+02 -.353E+02 0.240E+01   -.283E+02 0.385E+02 -.269E+01   0.191E+01 -.297E+01 0.273E+00
   0.512E+00 -.621E+01 0.557E+01   -.303E+00 0.650E+01 -.563E+01   -.197E+00 -.295E+00 0.888E-01
   -.305E+01 -.184E+02 -.940E+00   0.400E+01 0.208E+02 0.721E+00   -.791E+00 -.228E+01 0.216E+00
   0.983E+00 -.113E+02 0.701E+00   -.112E+01 0.119E+02 -.679E+00   0.104E+00 -.615E+00 -.249E-01
   0.282E+00 0.572E+00 -.104E+02   -.287E+00 -.582E+00 0.104E+02   0.205E-01 0.264E-01 -.119E-01
   -.448E+01 0.212E+00 0.105E+01   0.455E+01 -.162E+00 -.115E+01   -.111E+00 -.257E-01 0.942E-01
   -.255E+01 -.651E+01 -.374E+01   0.265E+01 0.674E+01 0.374E+01   -.113E+00 -.318E+00 0.749E-02
   0.188E+01 -.121E+01 -.129E+02   -.200E+01 0.112E+01 0.128E+02   0.160E+00 0.286E-01 0.207E-01
   0.265E+01 0.515E+01 -.153E+02   -.277E+01 -.525E+01 0.153E+02   0.650E-01 0.114E+00 -.480E-01
   -.970E+01 0.103E+02 -.140E+02   0.913E+01 -.105E+02 0.142E+02   0.480E+00 0.770E-01 -.286E+00
   -.205E+01 0.370E+01 -.111E+02   0.195E+01 -.360E+01 0.111E+02   0.148E+00 -.146E+00 -.564E-02
   0.929E+00 0.467E+01 -.121E+02   -.107E+01 -.491E+01 0.120E+02   0.110E+00 0.251E+00 0.984E-01
   -.443E+01 0.796E+01 -.150E+02   0.450E+01 -.830E+01 0.149E+02   -.133E+00 0.259E+00 0.888E-01
   -.151E+02 0.394E+02 -.229E+02   0.164E+02 -.424E+02 0.222E+02   -.123E+01 0.303E+01 0.611E+00
   -.870E+01 0.557E+01 -.195E+02   0.901E+01 -.561E+01 0.196E+02   -.765E-01 0.817E-01 -.159E+00
   -.140E+02 -.733E+01 -.204E+02   0.143E+02 0.779E+01 0.203E+02   -.367E+00 -.392E+00 0.926E-01
   -.366E+02 -.129E+02 -.142E+02   0.404E+02 0.129E+02 0.140E+02   -.350E+01 -.772E-01 0.187E+00
   -.293E+02 -.205E+02 -.321E+02   0.312E+02 0.230E+02 0.320E+02   -.178E+01 -.225E+01 0.123E+00
   -.113E+02 -.350E+01 -.163E+02   0.114E+02 0.374E+01 0.163E+02   -.224E+00 -.207E+00 0.434E-01
   -.591E+01 -.585E+01 -.146E+02   0.635E+01 0.579E+01 0.146E+02   -.438E+00 0.224E-03 -.437E-01
   -.387E+01 -.118E+02 -.174E+01   0.408E+01 0.124E+02 0.163E+01   -.196E+00 -.395E+00 0.116E+00
   -.143E+02 -.131E+02 -.113E+02   0.149E+02 0.133E+02 0.113E+02   -.556E+00 -.333E+00 0.977E-02
   -.462E+01 -.479E+01 -.112E+02   0.466E+01 0.493E+01 0.112E+02   0.825E-02 -.122E+00 0.371E-01
   -.300E+02 -.452E+02 0.400E+02   0.488E+02 0.451E+02 -.426E+02   -.174E+02 0.944E-01 0.243E+01
   -.239E+02 -.769E+00 0.608E+02   0.341E+02 0.184E+02 -.639E+02   -.954E+01 -.170E+02 0.297E+01
   -.421E+02 0.885E+01 0.159E+03   0.399E+02 0.680E+01 -.161E+03   0.252E+01 -.143E+02 0.296E+01
   -.184E+02 0.705E+02 -.288E+02   0.311E+02 -.915E+02 0.303E+02   -.118E+02 0.197E+02 -.142E+01
   0.246E+02 0.118E+02 0.122E+02   -.348E+02 -.306E+02 -.135E+02   0.944E+01 0.174E+02 0.131E+01
   0.294E+02 0.177E+02 -.799E+02   -.524E+02 -.170E+02 0.821E+02   0.215E+02 -.680E+00 -.212E+01
   0.313E+02 -.971E+02 0.467E+03   -.312E+02 0.926E+02 -.461E+03   -.140E+01 0.424E+01 -.700E+01
   0.868E+02 -.489E+02 -.418E+03   -.818E+02 0.492E+02 0.410E+03   -.388E+01 -.220E+00 0.656E+01
   0.995E+01 -.930E+01 -.673E+01   -.284E-12 0.497E-13 -.171E-12   -.948E+01 0.848E+01 0.573E+01

 POSITION                                       TOTAL-FORCE (eV/Angst)
      2.97789     12.30870     10.05423         0.039886     -0.014409     -0.009002
      0.68361      1.23614     10.11375        -0.035910     -0.057372     -0.010703
      1.54820     12.31719     10.09816        -0.052401     -0.001539     -0.007007
      3.53577      1.23549      9.99665        -0.005262      0.033125     -0.002857
      2.80784      2.45562      9.99996        -0.060458      0.024698     -0.020481
      0.69849      3.70623     10.09624         0.021971     -0.056916     -0.002987
      1.38827      2.46660     10.07851         0.032910      0.050685     -0.012487
      3.52278      3.66549      9.88957        -0.001282      0.058672     -0.002048
      2.85554      4.92840      9.92935        -0.102042     -0.243884     -0.009640
      0.78196      6.17368     10.11124        -0.261064     -0.037393      0.004399
      1.44470      4.92491     10.05678         0.202724     -0.009690     -0.046340
      3.01391      7.33541     10.00593        -0.130318      0.227442      0.030834
      0.85809      8.61914     10.14242         0.065027      0.030391     -0.011607
      1.56800      7.38392     10.09825         0.155242      0.094840     -0.051113
      3.79396      8.58249     10.07299        -0.153198     -0.091690      0.012604
      3.02554      9.81698     10.08580        -0.011390     -0.030882      0.007027
      0.85585     11.08132     10.12448        -0.047612      0.061187     -0.006637
      1.58354      9.84061     10.11569         0.002805     -0.081848      0.003992
      3.70538     11.07901     10.05906         0.011547      0.064505     -0.003952
      7.10825      0.12005     10.00357        -0.018179     -0.021795     -0.004601
      4.95928      1.27412      9.94297        -0.000578     -0.019119     -0.021988
      5.82628     12.36799      9.98308         0.040415      0.020354      0.004116
      7.79810      1.38448      9.96796         0.084791     -0.049146     -0.005180
      7.07567      2.61706      9.84386         0.018899      0.047019      0.072279
      5.63169      2.54203      9.82749        -0.264371      0.212777      0.012898
      7.78131      3.89497      9.84109         0.007694      0.018268     -0.021805
      7.28433      9.94160     10.09149        -0.057874      0.057405      0.000577
      5.13377     11.10514     10.03240        -0.004854     -0.026360      0.030070
      5.83208      9.85537     10.08138         0.111737     -0.022053      0.007711
      7.96052     11.20511     10.06417        -0.027595     -0.046554     -0.004601
     11.38292      0.16062     10.12976         0.018043      0.023264     -0.005725
      9.22938      1.41250     10.04756        -0.058836      0.022045     -0.000571
      9.95039      0.17130     10.09507        -0.024186     -0.105870      0.005716
     12.08158      1.39728     10.12959         0.049408     -0.062412     -0.011149
     11.36816      2.63988     10.13100        -0.053796      0.024774     -0.014336
      9.21988      3.92012     10.07425        -0.075927     -0.055654     -0.097959
      9.93085      2.66628     10.09313         0.061386     -0.060176     -0.012101
     12.09336      3.86742     10.13153        -0.029792      0.018399     -0.006600
     11.40764      5.11627     10.16426        -0.066842     -0.068582      0.005778
      9.96261      5.17101     10.18742        -0.042576      0.258024     -0.001044
     12.18375      6.32494     10.17332         0.224836      0.051384     -0.024096
     11.50093      7.56629     10.20263        -0.094254      0.042838      0.005557
      9.38508      8.80217     10.18369         0.103700     -0.036437     -0.009379
     10.08073      7.55461     10.24973         0.028016      0.112497     -0.018490
     12.24833      8.77879     10.17449        -0.070249      0.021294     -0.009145
     11.54224     10.01083     10.16434        -0.016874     -0.060364     -0.010013
      9.39210     11.24344     10.09720         0.010774      0.096110      0.009848
     10.11478     10.01712     10.15394        -0.005313     -0.143072     -0.005235
     12.24920     11.24248     10.13998         0.043931      0.002069     -0.005309
      3.61988      6.09406      9.83660        -0.103698     -0.008597      0.056208
      4.88255      3.67722      9.73619        -0.268823     -0.832808      0.199712
      7.13242      5.06499      9.65069         0.482902      0.147934      0.544124
      5.19927      8.61229     10.12878        -0.111397      0.368798     -0.084490
      8.00883      8.77771     10.13417         0.072510      0.055893      0.147942
      9.32563      6.39424     10.31055         0.377933     -0.041353     -0.050716
      5.38538      5.48737      9.25925        -0.777042     -0.069781     -0.241623
      7.11402      6.88604     10.48857         0.764904      0.109067     -0.298377
    total drift:                                0.015128     -0.020532      0.034780

  FREE ENERGIE OF THE ION-ELECTRON SYSTEM (eV)
  free  energy   TOTEN  =      -598.30399920 eV

  energy  without entropy=     -598.30370380  energy(sigma->0) =     -598.30385150

 stress matrix after NEB project (eV)
    -43.32943      1.41213      0.99707
      1.41248    -43.35597      0.30590
      0.99697      0.30459     -0.71265
  FORCES: max atom, RMS     0.897619    0.259962
  FORCE total and by dimension    1.962669    0.832808
  Stress total and by dimension   61.350238   43.355972
 writing wavefunctions

 total charge

[...]

 magnetization (x)

# of ion       s       p       d       tot
    1        0.000   0.002   0.000   0.002
    2        0.001   0.010   0.000   0.011
    3       -0.001  -0.008   0.000  -0.009
    4        0.000   0.004   0.000   0.004
    5       -0.000   0.002   0.000   0.002
    6        0.000   0.004   0.000   0.005
    7       -0.001  -0.006   0.000  -0.007
    8       -0.001  -0.006   0.000  -0.007
    9       -0.001   0.013   0.000   0.013
   10        0.002   0.025   0.000   0.027
   11       -0.001  -0.007   0.000  -0.008
   12        0.002   0.036   0.000   0.038
   13        0.001   0.014   0.000   0.015
   14       -0.002  -0.011   0.000  -0.013
   15       -0.002  -0.015   0.000  -0.017
   16        0.001   0.016   0.000   0.017
   17        0.001   0.009   0.000   0.010
   18       -0.001  -0.014   0.000  -0.015
   19        0.000   0.006   0.000   0.006
   20       -0.000  -0.005   0.000  -0.005
   21       -0.001   0.002   0.000   0.001
   22        0.000   0.006   0.000   0.006
   23       -0.000   0.000   0.000   0.000
   24       -0.001  -0.010   0.000  -0.011
   25        0.000   0.006   0.000   0.006
   26       -0.001   0.003   0.000   0.002
   27        0.001   0.029   0.000   0.030
   28       -0.000   0.001   0.000   0.000
   29        0.000   0.019   0.000   0.019
   30       -0.001  -0.007   0.000  -0.008
   31        0.000   0.006   0.000   0.007
   32        0.001   0.011   0.000   0.011
   33       -0.001  -0.003   0.000  -0.003
   34       -0.001  -0.007   0.000  -0.008
   35        0.001   0.014   0.000   0.015
   36       -0.001  -0.008   0.000  -0.008
   37       -0.000  -0.004   0.000  -0.004
   38       -0.001  -0.007   0.000  -0.008
   39        0.001   0.020   0.000   0.021
   40       -0.001  -0.008   0.000  -0.009
   41       -0.001  -0.013   0.000  -0.015
   42        0.000   0.006   0.000   0.007
   43        0.000   0.013   0.000   0.013
   44        0.000   0.007   0.000   0.007
   45       -0.000   0.002   0.000   0.002
   46        0.000   0.004   0.000   0.005
   47        0.002   0.027   0.000   0.029
   48       -0.001  -0.002   0.000  -0.003
   49       -0.001  -0.007   0.000  -0.008
   50        0.001  -0.019   0.000  -0.019
   51       -0.012  -0.055   0.000  -0.066
   52       -0.000  -0.010   0.000  -0.010
   53        0.001   0.055   0.000   0.056
   54        0.002   0.060   0.000   0.063
   55        0.001   0.012   0.000   0.013
   56       -0.051  -0.071  -3.135  -3.258
   57        0.003   0.006   0.024   0.033
tot         -0.058   0.147  -3.111  -3.022