 vasp.5.4.4.18Apr17-6-g9f103f2a35 (build Feb 25 2019 10:51:38) complex

 executed on             LinuxIFC date 2021.06.15  23:38:09

 INCAR:
 POTCAR:    PAW_PBE C 08Apr2002
 POTCAR:    PAW_PBE N 08Apr2002
 POTCAR:    PAW_PBE Fe 06Sep2000
 POTCAR:    PAW_PBE Sc_sv 07Sep2000

 POTCAR:    PAW_PBE C 08Apr2002
   VRHFIN =C: s2p2

   TITEL  = PAW_PBE C 08Apr2002
   POMASS =   12.011; ZVAL   =    4.000    mass and valenz
   ENMAX  =  400.000; ENMIN  =  300.000 eV

 POTCAR:    PAW_PBE N 08Apr2002
   VRHFIN =N: s2p3

   TITEL  = PAW_PBE N 08Apr2002
   POMASS =   14.001; ZVAL   =    5.000    mass and valenz
   ENMAX  =  400.000; ENMIN  =  300.000 eV

 POTCAR:    PAW_PBE Fe 06Sep2000
   VRHFIN =Fe:  d7 s1

   TITEL  = PAW_PBE Fe 06Sep2000
   POMASS =   55.847; ZVAL   =    8.000    mass and valenz
   ENMAX  =  267.882; ENMIN  =  200.911 eV

 POTCAR:    PAW_PBE Sc_sv 07Sep2000
   VRHFIN =Sc: 3p4s3d

   TITEL  = PAW_PBE Sc_sv 07Sep2000
   POMASS =   44.956; ZVAL   =   11.000    mass and valenz
   ENMAX  =  222.660; ENMIN  =  166.995 eV

  PAW_PBE C 08Apr2002                   :
  PAW_PBE N 08Apr2002                   :
  PAW_PBE Fe 06Sep2000                  :
  PAW_PBE Sc_sv 07Sep2000               :

 POSCAR:  C  N Fe Sc
  positions in cartesian coordinates
 exchange correlation table for  LEXCH =        8
   RHO(1)=    0.500       N(1)  =     2000
   RHO(2)=  100.500       N(2)  =     4000

 VTST: version 3.2, (02/03/18)

 CHAIN: initializing optimizer

 OPT: Using VASP Conjugate-Gradient optimizer
 CHAIN: Read ICHAIN            0

 POSCAR:  C  N Fe Sc
  positions in cartesian coordinates

 ion  position               nearest neighbor table
   1  0.221  0.003  0.495-  19 1.43   3 1.43   4 1.43
   2  0.056  0.102  0.493-   3 1.43  38 1.44   7 1.44
   3  0.110  0.002  0.493-   2 1.43  17 1.43   1 1.43
   4  0.278  0.103  0.497-  21 1.43   1 1.43   5 1.44
   5  0.224  0.205  0.499-   7 1.44   4 1.44   8 1.45
   6  0.056  0.302  0.494-   7 1.43  11 1.43  42 1.43
   7  0.112  0.203  0.495-   6 1.43   2 1.44   5 1.44
   8  0.280  0.307  0.506-   5 1.45  25 1.46   9 1.46
   9  0.221  0.407  0.507-  55 1.39  11 1.43   8 1.46
  10  0.054  0.502  0.496-  46 1.42  14 1.43  11 1.43
  11  0.111  0.403  0.498-   6 1.43   9 1.43  10 1.43
  12  0.218  0.603  0.509-  55 1.38  14 1.42  15 1.45
  13  0.053  0.702  0.493-  18 1.42  50 1.43  14 1.43
  14  0.109  0.603  0.498-  12 1.42  10 1.43  13 1.43
  15  0.274  0.705  0.508-  58 1.38  16 1.43  12 1.45
  16  0.219  0.803  0.498-  15 1.43  18 1.43  19 1.43
  17  0.054  0.902  0.491-  18 1.43   3 1.43  54 1.43
  18  0.108  0.802  0.493-  13 1.42  16 1.43  17 1.43
  19  0.275  0.903  0.497-   1 1.43  32 1.43  16 1.43
  20  0.554  0.998  0.497-  22 1.43  23 1.43  34 1.44
  21  0.388  0.101  0.497-  26 1.43   4 1.43  22 1.43
  22  0.443  0.001  0.497-  32 1.43  20 1.43  21 1.43
  23  0.611  0.098  0.496-  24 1.43  36 1.43  20 1.43
  24  0.556  0.199  0.498-  27 1.43  23 1.43  26 1.43
  25  0.394  0.302  0.508-  56 1.39  26 1.43   8 1.46
  26  0.445  0.201  0.500-  21 1.43  24 1.43  25 1.43
  27  0.613  0.299  0.499-  40 1.43  24 1.43  28 1.43
  28  0.558  0.397  0.509-  56 1.38  27 1.43  29 1.45
  29  0.614  0.499  0.508-  57 1.38  44 1.42  28 1.45
  30  0.611  0.695  0.506-  57 1.38  48 1.43  31 1.47
  31  0.551  0.795  0.506-  34 1.46  33 1.46  30 1.47
  32  0.386  0.901  0.499-  22 1.43  19 1.43  33 1.44
  33  0.438  0.800  0.507-  58 1.38  32 1.44  31 1.46
  34  0.608  0.897  0.500-  20 1.44  52 1.44  31 1.46
  35  0.887  0.000  0.491-  54 1.43  38 1.43  37 1.44
  36  0.722  0.099  0.494-  37 1.43  41 1.43  23 1.43
  37  0.776  0.999  0.493-  36 1.43  52 1.44  35 1.44
  38  0.944  0.101  0.491-  39 1.43  35 1.43   2 1.44
  39  0.889  0.200  0.492-  38 1.43  42 1.43  41 1.43
  40  0.723  0.299  0.495-  45 1.42  41 1.43  27 1.43
  41  0.778  0.199  0.493-  40 1.43  36 1.43  39 1.43
  42  0.945  0.301  0.492-  43 1.43  39 1.43   6 1.43
  43  0.889  0.400  0.493-  46 1.43  45 1.43  42 1.43
  44  0.723  0.498  0.498-  29 1.42  45 1.43  49 1.43
  45  0.779  0.399  0.494-  40 1.42  43 1.43  44 1.43
  46  0.944  0.501  0.493-  10 1.42  43 1.43  47 1.43
  47  0.888  0.600  0.493-  49 1.42  50 1.43  46 1.43
  48  0.721  0.699  0.497-  53 1.43  49 1.43  30 1.43
  49  0.777  0.599  0.496-  47 1.42  44 1.43  48 1.43
  50  0.942  0.701  0.492-  47 1.43  13 1.43  51 1.43
  51  0.887  0.800  0.491-  50 1.43  54 1.43  53 1.43
  52  0.719  0.899  0.496-  53 1.43  37 1.44  34 1.44
  53  0.776  0.799  0.494-  48 1.43  52 1.43  51 1.43
  54  0.943  0.901  0.491-  35 1.43  17 1.43  51 1.43
  55  0.269  0.507  0.520-  12 1.38   9 1.39  59 1.96
  56  0.452  0.395  0.521-  28 1.38  25 1.39  59 1.96
  57  0.564  0.596  0.518-  29 1.38  30 1.38  60 2.11
  58  0.379  0.708  0.518-  15 1.38  33 1.38  60 2.11
  59  0.371  0.472  0.589-  56 1.96  55 1.96  60 2.20
  60  0.456  0.627  0.595-  57 2.11  58 2.11  59 2.20

  LATTYP: Found a triclinic cell.
 ALAT       =    12.3598000000
 B/A-ratio  =     1.9170794745
 C/A-ratio  =     1.0436253014
 COS(alpha) =     0.0019094145
 COS(beta)  =     0.0097178403
 COS(gamma) =     0.5409986585

  Lattice vectors:

 A1 = (  -0.1201105627,  12.3592163786,   0.0000000000)
 A2 = (  -0.0452430407,  12.8189767706, -19.9276564314)
 A3 = ( -12.8990000000,   0.0000000000,   0.0000000000)

Analysis of symmetry for initial positions (statically):
 Subroutine PRICEL returns:
 Original cell was already a primitive cell.

 Routine SETGRP: Setting up the symmetry group for a
 triclinic supercell.

 Subroutine GETGRP returns: Found  1 space group operations
 (whereof  1 operations were pure point group operations)
 out of a pool of  2 trial point group operations.

The static configuration has the point symmetry C_1 .

Analysis of symmetry for dynamics (positions and initial velocities):
 Subroutine PRICEL returns:
 Original cell was already a primitive cell.

[...]

The dynamic configuration has the point symmetry C_1 .

Analysis of structural, dynamic, and magnetic symmetry:
 Subroutine PRICEL returns:
 Original cell was already a primitive cell.

 Routine SETGRP: Setting up the symmetry group for a
 triclinic supercell.

 Subroutine GETGRP returns: Found  1 space group operations
 (whereof  1 operations were pure point group operations)
 out of a pool of  2 trial point group operations.

The magnetic configuration has the point symmetry C_1 .

 Subroutine INISYM returns: Found  1 space group operations
 (whereof  1 operations are pure point group operations),
 and found     1 'primitive' translations

 KPOINTS: KPOINTS created by Atomic Simulation Env

Automatic generation of k-mesh.
Space group operators:
 irot       det(A)        alpha          n_x          n_y          n_z        tau_x        tau_y        tau_z
    1     1.000000     0.000000     1.000000     0.000000     0.000000     0.000000     0.000000     0.000000

 Subroutine IBZKPT returns following result:

 Found      2 irreducible k-points:

 Following reciprocal coordinates:
            Coordinates               Weight
  0.250000  0.250000  0.000000      2.000000
 -0.250000  0.250000 -0.000000      2.000000

 Following cartesian coordinates:
            Coordinates               Weight
  0.019381  0.020416  0.000544      2.000000
 -0.019381  0.020039  0.000390      2.000000

 Subroutine IBZKPT_HF returns following result:

 Found      4 k-points in 1st BZ
 the following      4 k-points will be used (e.g. in the exchange kernel)
 Following reciprocal coordinates:   # in IRBZ
  0.250000  0.250000  0.000000    0.25000000   1 t-inv F
 -0.250000  0.250000 -0.000000    0.25000000   2 t-inv F
 -0.250000 -0.250000 -0.000000    0.25000000   1 t-inv T
  0.250000 -0.250000  0.000000    0.25000000   2 t-inv T

 SYSTEM =  unknown system
 POSCAR =   C  N Fe Sc

 Startparameter for this run:
   NWRITE =      2    write-flag & timer
   PREC   = accura    normal or accurate (medium, high low for compatibility)
   ISTART =      1    job   : 0-new  1-cont  2-samecut
   ICHARG =      0    charge: 1-file 2-atom 10-const
   ISPIN  =      2    spin polarized calculation?
   LNONCOLLINEAR =      F non collinear calculations
   LSORBIT =      F    spin-orbit coupling
   INIWAV =      1    electr: 0-lowe 1-rand  2-diag
   LASPH  =      T    aspherical Exc in radial PAW
   METAGGA=      F    non-selfconsistent MetaGGA calc.

 Electronic Relaxation 1
   ENCUT  =  500.0 eV  36.75 Ry    6.06 a.u.  23.52 22.53 36.34*2*pi/ulx,y,z
   ENINI  =  500.0     initial cutoff
   ENAUG  =  644.9 eV  augmentation charge cutoff
   NELM   =    250;   NELMIN=  2; NELMDL=  0     # of ELM steps
   EDIFF  = 0.1E-03   stopping-criterion for ELM
   LREAL  =      F    real-space projection
   NLSPLINE    = F    spline interpolate recip. space projectors
   LCOMPAT=      F    compatible to vasp.4.4
   GGA_COMPAT  = T    GGA compatible to vasp.4.4-vasp.4.6
   LMAXPAW     = -100 max onsite density
   LMAXMIX     =    2 max onsite mixed and CHGCAR
   VOSKOWN=      0    Vosko Wilk Nusair interpolation
   ROPT   =    0.00000   0.00000   0.00000   0.00000
 Ionic relaxation
   EDIFFG = -.3E-01   stopping-criterion for IOM
   NSW    =      0    number of steps for IOM
   NBLOCK =      1;   KBLOCK =      1    inner block; outer block
   IBRION =     -1    ionic relax: 0-MD 1-quasi-New 2-CG
   NFREE  =      1    steps in history (QN), initial steepest desc. (CG)
   ISIF   =      2    stress and relaxation
   IWAVPR =     10    prediction:  0-non 1-charg 2-wave 3-comb
   ISYM   =      3    0-nonsym 1-usesym 2-fastsym
   LCORR  =      T    Harris-Foulkes like correction to forces

   POTIM  = 0.5000    time-step for ionic-motion
   TEIN   =    0.0    initial temperature
   TEBEG  =    0.0;   TEEND  =   0.0 temperature during run
   SMASS  =  -3.00    Nose mass-parameter (am)
   estimated Nose-frequenzy (Omega)   =  0.10E-29 period in steps =****** mass=  -0.380E-26a.u.
   SCALEE = 1.0000    scale energy and forces
   NPACO  =    256;   APACO  = 16.0  distance and # of slots for P.C.
   PSTRESS=    0.0 pullay stress

  Mass of Ions in am
   POMASS =  12.01 14.00 55.85 44.96
  Ionic Valenz
   ZVAL   =   4.00  5.00  8.00 11.00
  Atomic Wigner-Seitz radii
  virtual crystal weights
   VCA    =   1.00  1.00  1.00  1.00
   NELECT =     255.0000    total number of electrons
   NUPDOWN=      -1.0000    fix difference up-down

 DOS related values:
   EMIN   =  10.00;   EMAX   =-10.00  energy-range for DOS
   EFERMI =   0.00
   ISMEAR =     0;   SIGMA  =   0.10  broadening in eV -4-tet -1-fermi 0-gaus

 Electronic relaxation 2 (details)
   IALGO  =     53    algorithm
   LDIAG  =      T    sub-space diagonalisation (order eigenvalues)
   LSUBROT=      F    optimize rotation matrix (better conditioning)
   TURBO    =      0    0=normal 1=particle mesh
   IRESTART =      0    0=no restart 2=restart with 2 vectors
   NREBOOT  =      0    no. of reboots
   NMIN     =      0    reboot dimension
   EREF     =   0.00    reference energy to select bands
   IMIX   =      4    mixing-type and parameters
     AMIX     =   0.40;   BMIX     =  1.00
     AMIX_MAG =   1.60;   BMIX_MAG =  1.00
     AMIN     =   0.10
     WC   =   100.;   INIMIX=   1;  MIXPRE=   1;  MAXMIX= -45

[...]
   46        0.865   1.776   0.000   2.641
   47        0.865   1.774   0.000   2.639
   48        0.865   1.770   0.000   2.635
   49        0.867   1.765   0.000   2.632
   50        0.867   1.768   0.000   2.634
   51        0.864   1.764   0.000   2.629
   52        0.861   1.757   0.000   2.618
   53        0.864   1.765   0.000   2.630
   54        0.865   1.769   0.000   2.634
   55        1.231   2.667   0.000   3.899
   56        1.235   2.665   0.000   3.900
   57        1.237   2.681   0.000   3.918
   58        1.239   2.685   0.000   3.924
   59        0.472   0.382   6.349   7.203
   60        2.283   6.121   1.262   9.666
tot         54.273 112.091   7.611 173.975

 magnetization (x)

[...]

  FORCE on cell =-STRESS in cart. coord.  units (eV):
  Direction    XX          YY          ZZ          XY          YZ          ZX
  Alpha Z   113.71326   113.71326   113.71326
  Ewald   48989.62574 49281.41317-57314.29594   169.23702     6.72843     3.34299
  Hartree 48774.63295 48957.08270-47576.44882    90.81230    -4.06629    -1.39890
  E(xc)    -744.67841  -744.94155  -758.07957    -0.23073    -0.19216    -0.11434
  Local  ************************101701.35299  -251.53108    -0.42716    -0.89294
  n-local  -185.17067  -183.29165  -175.43719     1.60891    -1.67183    -0.89231
  augment    41.48171    43.48773    41.35227     1.67392     0.36592     0.26301
  Kinetic  3806.26557  3794.54989  4292.90881   -10.45487    -0.67043    -0.22465
  Fock     -354.83314  -357.24553  -325.87099    -2.08836     0.30133     0.17615
  Total     -45.16712   -44.75483    -0.80517    -0.97289     0.36781     0.25903
  in kB     -22.77874   -22.57082    -0.40606    -0.49065     0.18549     0.13064

 VOLUME and BASIS-vectors are now :
  energy-cutoff  :      500.00
  volume of cell :     3176.90
      direct lattice vectors                 reciprocal lattice vectors
    12.899000000  0.000000000  0.000000000     0.077525390  0.000753415  0.000308643
    -0.120110563 12.359216379  0.000000000     0.000000000  0.080911279  0.001866742
    -0.074867522 -0.459760392 19.927656431     0.000000000  0.000000000  0.050181515

  length of vectors
    12.899000000 12.359800000 19.933100000     0.077529665  0.080932810  0.050181515

 FORCES acting on ions:
    Electron-Ion                     Ewald-Force                    Non-Local-Force
   0.763E+01 -.718E+01 0.305E+02   -.792E+01 0.748E+01 -.306E+02   0.275E+00 -.252E+00 0.107E+00
   0.518E+01 -.101E+01 0.279E+02   -.517E+01 0.986E+00 -.280E+02   -.253E-02 -.644E-02 0.618E-01
   0.513E+01 -.324E+01 0.288E+02   -.528E+01 0.329E+01 -.287E+02   0.122E+00 -.301E-01 -.640E-01
   0.887E+01 0.185E+01 0.264E+02   -.905E+01 -.183E+01 -.263E+02   0.158E+00 -.604E-01 -.970E-01
   0.926E+01 0.112E+02 0.217E+02   -.940E+01 -.110E+02 -.218E+02   0.637E-01 -.110E+00 0.707E-01
   0.961E+01 0.105E+02 0.342E+02   -.964E+01 -.108E+02 -.343E+02   0.274E-01 0.337E+00 0.137E+00
   0.520E+01 0.102E+02 0.248E+02   -.515E+01 -.104E+02 -.247E+02   0.114E-01 0.112E+00 -.944E-01
   0.186E+02 0.292E+02 0.233E+02   -.187E+02 -.294E+02 -.239E+02   0.735E-01 0.410E-01 0.634E+00
   0.339E+02 0.511E+02 0.375E+02   -.354E+02 -.535E+02 -.388E+02   0.153E+01 0.267E+01 0.122E+01
   0.176E+02 0.445E+01 0.332E+02   -.179E+02 -.451E+01 -.330E+02   0.245E+00 0.169E-01 -.157E+00
   0.214E+02 0.153E+02 0.396E+02   -.217E+02 -.157E+02 -.398E+02   0.264E+00 0.258E+00 0.151E+00
   0.347E+02 -.332E+02 0.248E+02   -.363E+02 0.356E+02 -.255E+02   0.142E+01 -.247E+01 0.707E+00
   0.125E+02 -.535E+01 0.423E+02   -.126E+02 0.567E+01 -.424E+02   0.727E-01 -.220E+00 0.693E-01
   0.253E+02 -.913E+01 0.396E+02   -.253E+02 0.949E+01 -.397E+02   0.200E+00 -.280E+00 0.147E+00
   0.519E+02 -.110E+02 0.317E+02   -.555E+02 0.109E+02 -.327E+02   0.343E+01 0.242E+00 0.937E+00
   0.219E+02 -.193E+02 0.427E+02   -.225E+02 0.193E+02 -.430E+02   0.546E+00 -.533E-01 0.266E+00
   0.688E+01 -.765E+01 0.364E+02   -.696E+01 0.774E+01 -.365E+02   0.285E-01 -.817E-01 0.918E-01
   0.120E+02 -.115E+02 0.413E+02   -.125E+02 0.115E+02 -.413E+02   0.368E+00 -.527E-01 0.298E-01
   0.118E+02 -.197E+02 0.342E+02   -.120E+02 0.200E+02 -.341E+02   0.281E+00 -.286E+00 -.126E+00
   -.780E+01 -.415E+01 0.233E+02   0.803E+01 0.419E+01 -.232E+02   -.179E+00 -.791E-03 -.761E-01
   0.278E+01 0.735E+01 0.355E+02   -.303E+01 -.747E+01 -.356E+02   0.249E+00 0.119E+00 0.144E+00
   -.331E+01 -.986E+01 0.348E+02   0.357E+01 0.101E+02 -.349E+02   -.265E+00 -.268E+00 0.137E+00
   -.683E+01 0.568E+01 0.264E+02   0.710E+01 -.592E+01 -.265E+02   -.233E+00 0.181E+00 0.111E+00
   -.105E+02 0.195E+02 0.279E+02   0.107E+02 -.197E+02 -.277E+02   -.196E+00 0.259E+00 -.145E+00
   0.267E+02 0.551E+02 0.362E+02   -.282E+02 -.577E+02 -.375E+02   0.166E+01 0.274E+01 0.124E+01
   0.360E+00 0.236E+02 0.374E+02   -.391E+00 -.240E+02 -.375E+02   0.762E-01 0.307E+00 0.143E+00
   -.211E+02 0.184E+02 0.358E+02   0.216E+02 -.184E+02 -.360E+02   -.399E+00 0.426E-01 0.215E+00
   -.488E+02 0.143E+02 0.232E+02   0.518E+02 -.143E+02 -.240E+02   -.303E+01 -.832E-01 0.759E+00
   -.338E+02 0.381E+02 0.312E+02   0.356E+02 -.412E+02 -.321E+02   -.154E+01 0.296E+01 0.893E+00
   -.363E+02 -.531E+02 0.451E+02   0.380E+02 0.558E+02 -.466E+02   -.173E+01 -.289E+01 0.143E+01
   -.208E+02 -.326E+02 0.209E+02   0.210E+02 0.329E+02 -.216E+02   -.155E+00 -.218E+00 0.695E+00
   0.189E+00 -.249E+02 0.417E+02   -.222E+00 0.255E+02 -.419E+02   -.197E-01 -.523E+00 0.215E+00
   -.269E+02 -.587E+02 0.440E+02   0.285E+02 0.615E+02 -.454E+02   -.168E+01 -.295E+01 0.142E+01
   -.981E+01 -.115E+02 0.179E+02   0.997E+01 0.116E+02 -.180E+02   -.795E-01 -.500E-01 0.121E+00
   0.901E+00 -.349E+01 0.300E+02   -.844E+00 0.356E+01 -.300E+02   -.401E-01 -.373E-01 0.368E-01
   -.582E+01 0.252E+01 0.250E+02   0.592E+01 -.252E+01 -.249E+02   -.990E-01 -.166E-01 -.767E-01
   -.592E+01 0.223E-01 0.265E+02   0.593E+01 0.506E-01 -.266E+02   -.192E-01 -.445E-01 0.728E-01
   -.108E+01 0.291E+01 0.296E+02   0.109E+01 -.297E+01 -.296E+02   -.110E-01 0.122E-01 0.349E-01
   -.139E+01 0.449E+01 0.311E+02   0.135E+01 -.457E+01 -.311E+02   -.341E-01 0.787E-01 0.134E-01
   -.111E+02 0.117E+02 0.360E+02   0.115E+02 -.117E+02 -.360E+02   -.309E+00 0.649E-01 0.277E-01
   -.719E+01 0.751E+01 0.319E+02   0.729E+01 -.757E+01 -.320E+02   -.394E-01 0.605E-01 0.827E-01
   0.181E-01 0.706E+01 0.340E+02   -.308E-01 -.715E+01 -.341E+02   0.117E-01 0.998E-01 0.408E-01
   -.296E+01 0.639E+01 0.364E+02   0.300E+01 -.642E+01 -.364E+02   -.490E-01 0.334E-01 0.217E-01
   -.265E+02 0.103E+02 0.419E+02   0.267E+02 -.108E+02 -.420E+02   -.321E+00 0.393E+00 0.204E+00
   -.129E+02 0.657E+01 0.391E+02   0.131E+02 -.695E+01 -.391E+02   -.152E+00 0.285E+00 0.372E-01
   0.425E+01 0.920E+00 0.356E+02   -.430E+01 -.945E+00 -.356E+02   0.123E+00 -.395E-02 0.493E-01
   -.499E+01 -.267E+00 0.373E+02   0.515E+01 0.247E+00 -.373E+02   -.222E+00 0.561E-01 0.376E-01
   -.227E+02 -.156E+02 0.445E+02   0.232E+02 0.160E+02 -.447E+02   -.478E+00 -.310E+00 0.212E+00
   -.189E+02 -.328E+01 0.376E+02   0.193E+02 0.329E+01 -.375E+02   -.298E+00 0.315E-01 -.114E+00
   0.204E+01 -.629E+01 0.399E+02   -.205E+01 0.632E+01 -.399E+02   -.501E-02 -.324E-01 0.487E-01
   -.123E+01 -.707E+01 0.376E+02   0.128E+01 0.718E+01 -.377E+02   -.721E-01 -.116E+00 0.625E-01
   -.653E+01 -.103E+02 0.236E+02   0.649E+01 0.105E+02 -.235E+02   -.308E-01 -.141E+00 -.608E-01
   -.102E+02 -.116E+02 0.362E+02   0.103E+02 0.119E+02 -.363E+02   -.126E+00 -.378E+00 0.145E+00
   0.123E+01 -.450E+01 0.341E+02   -.118E+01 0.460E+01 -.341E+02   0.856E-02 -.900E-01 0.201E-01
   0.703E+00 -.995E+01 0.153E+01   0.216E+02 0.114E+02 0.220E+01   -.213E+02 -.147E+01 -.400E+01
   -.875E+01 -.453E+01 -.311E+01   -.156E+01 0.248E+02 0.641E+01   0.986E+01 -.193E+02 -.363E+01
   0.322E+00 0.130E+02 0.303E+02   -.235E+02 -.144E+02 -.263E+02   0.218E+02 0.144E+01 -.381E+01
   0.109E+02 0.738E+01 0.276E+02   -.241E+00 -.281E+02 -.235E+02   -.991E+01 0.196E+02 -.389E+01
   0.928E+02 0.157E+03 -.769E+03   -.915E+02 -.155E+03 0.767E+03   -.197E+01 -.310E+01 0.242E+01
   -.887E+02 -.154E+03 -.108E+04   0.872E+02 0.151E+03 0.108E+04   0.154E+01 0.287E+01 0.577E+01
   0.170E-01 -.119E+00 -.541E+01   -.568E-12 0.114E-12 -.455E-12   -.540E+00 -.678E+00 0.515E+01

 POSITION                                       TOTAL-FORCE (eV/Angst)
      2.81251     -0.19150      9.85977        -0.006491      0.031319      0.010581
      0.66711      1.03388      9.81663         0.011174     -0.036995      0.005185
      1.38026     -0.20002      9.82016        -0.024117      0.012405      0.008972
      3.53083      1.04970      9.89721        -0.016230     -0.054218      0.005335
      2.82513      2.30505      9.94078        -0.072457      0.002141      0.033922
      0.64971      3.50059      9.84942        -0.001751      0.059432      0.022326
      1.38650      2.27749      9.86771         0.058578     -0.041084     -0.006884
      3.54275      3.56005     10.07507        -0.057876     -0.096163      0.050446
      2.76074      4.79805     10.10428         0.100891      0.462076      0.061624
      0.60005      5.97529      9.88831        -0.081469     -0.039561      0.006322
      1.34124      4.74809      9.92037        -0.061625     -0.066015      0.024986
      2.70095      7.21500     10.13488        -0.105261     -0.235961      0.034559
      0.56330      8.45034      9.83082        -0.000313      0.086698      0.024450
      1.29258      7.22344      9.92469         0.142328      0.063423      0.059997
      3.40713      8.47645     10.12084         0.039162      0.111340      0.050244
      2.68566      9.69004      9.92116         0.015949     -0.106931      0.072496
      0.54538     10.92120      9.79441        -0.046499      0.003709      0.023659
      1.26225      9.68808      9.83148        -0.038511     -0.052565      0.022767
      3.40486     10.92872      9.90289         0.057952     -0.005168      0.017296
      6.99254     12.10533      9.91254         0.030534      0.042757      0.003777
      4.96116      1.02030      9.89897         0.017423      0.003755      0.037209
      5.67944     -0.22188      9.90043        -0.019301     -0.021235      0.032000
      7.82974      0.98824      9.88277         0.030021     -0.051066      0.011320
      7.11574      2.22680      9.93105        -0.070659      0.033464      0.023646
      5.00449      3.50004     10.12088         0.328805      0.320252      0.066877
      5.68421      2.24971      9.95749         0.048199     -0.053219      0.038793
      7.83102      3.46316      9.95229         0.017369      0.084526      0.055859
      7.10536      4.67778     10.15038        -0.206935     -0.168767      0.046790
      7.82155      5.93374     10.12368         0.154474      0.076958      0.017687
      7.76058      8.35590     10.08654        -0.088352     -0.336580      0.063353
      6.97668      9.59371     10.08137         0.007486      0.052719      0.020639
      4.83592     10.91018      9.93987        -0.054400      0.048174      0.036656
      5.51575      9.65494     10.09951        -0.215284     -0.297413      0.063132
      7.69778     10.85437      9.95475         0.081277      0.040993      0.001858
     11.41035     -0.22229      9.79029         0.017245      0.027899      0.011643
      9.25988      0.99618      9.84149        -0.006934     -0.018468      0.005941
      9.85356     12.12125      9.82586        -0.013701      0.028397      0.007605
     12.12954      1.01798      9.79207        -0.003678     -0.039309      0.011769
     11.40538      2.24697      9.79693        -0.067408      0.005197      0.011798
      9.25615      3.46554      9.85832         0.040167      0.047053      0.014466
      9.97471      2.23435      9.81841         0.057475      0.004225      0.014431
     12.11577      3.48768      9.80760        -0.003075      0.006626      0.009450
     11.38496      4.71526      9.81442        -0.008527      0.005471      0.013148
      9.22897      5.92691      9.92207        -0.189230     -0.023854      0.079515
      9.95890      4.70091      9.84737         0.008820     -0.089617      0.012741
     12.07849      5.96105      9.82820         0.080995     -0.034516      0.013400
     11.34182      7.19175      9.82090        -0.075659      0.041311      0.017270
      9.18242      8.40633      9.90535         0.027323      0.029362      0.039026
      9.91988      7.17790      9.87604         0.081770      0.036231      0.011785
     12.03500      8.43684      9.79834        -0.007932     -0.009522      0.025936
     11.30446      9.66603      9.79167        -0.024813     -0.010129      0.022338
      9.13447     10.87858      9.87419        -0.068335      0.045322      0.002250
      9.87317      9.65361      9.84130         0.018688     -0.054664      0.023285
     12.01414     10.90823      9.78158         0.055128      0.005653      0.014295
      3.36465      6.02177     10.35986        -0.857662     -0.121789     -0.612786
      5.74493      4.64335     10.37513         0.406327     -0.810367     -0.628702
      7.16090      7.13218     10.31893         0.521279      0.214583     -0.118298
      4.77018      8.51638     10.32476        -0.111301      0.591927     -0.145336
      4.68294      5.56749     11.73479        -0.164660     -0.251850      0.416649
      5.76781      7.47338     11.86001         0.313606      0.501624     -0.321497
    total drift:                                0.023870      0.116426     -0.078232

  FREE ENERGIE OF THE ION-ELECTRON SYSTEM (eV)
  free  energy   TOTEN  =      -627.89666877 eV

  energy  without entropy=     -627.87521594  energy(sigma->0) =     -627.88594235

 stress matrix after NEB project (eV)
    -45.16712     -0.97264      0.25903
     -0.97289    -44.75483      0.36754
      0.25916      0.36781     -0.80517
  FORCES: max atom, RMS     1.103206    0.287292
  FORCE total and by dimension    2.225351    0.857662
  Stress total and by dimension   63.608250   45.167121
 writing wavefunctions

 total charge

[...]

 magnetization (x)

# of ion       s       p       d       tot
    1       -0.000  -0.001   0.000  -0.001
    2       -0.000  -0.001   0.000  -0.001
    3        0.000   0.007   0.000   0.007
    4        0.000   0.001   0.000   0.001
    5       -0.000  -0.003   0.000  -0.003
    6       -0.000  -0.002   0.000  -0.002
    7        0.001   0.008   0.000   0.009
    8        0.001   0.005   0.000   0.006
    9       -0.000   0.001   0.000   0.001
   10       -0.000  -0.001   0.000  -0.001
   11        0.001   0.005   0.000   0.005
   12        0.000  -0.001   0.000  -0.001
   13       -0.000  -0.001   0.000  -0.001
   14        0.001   0.002   0.000   0.003
   15        0.001   0.008   0.000   0.009
   16       -0.000  -0.000   0.000  -0.000
   17       -0.000  -0.002   0.000  -0.003
   18        0.000   0.006   0.000   0.006
   19        0.000   0.003   0.000   0.003
   20        0.000   0.003   0.000   0.004
   21        0.000   0.001   0.000   0.001
   22        0.000   0.001   0.000   0.001
   23        0.000   0.002   0.000   0.002
   24        0.000   0.002   0.000   0.002
   25        0.001   0.007   0.000   0.007
   26        0.000   0.002   0.000   0.002
   27        0.000   0.000   0.000   0.001
   28        0.000   0.003   0.000   0.004
   29        0.000   0.003   0.000   0.003
   30       -0.000   0.001   0.000   0.000
   31       -0.000   0.005   0.000   0.005
   32       -0.000  -0.002   0.000  -0.002
   33       -0.000   0.001   0.000   0.000
   34        0.000   0.002   0.000   0.002
   35       -0.000  -0.002   0.000  -0.002
   36       -0.000  -0.000   0.000  -0.000
   37        0.000   0.002   0.000   0.003
   38        0.000   0.005   0.000   0.005
   39       -0.000  -0.002   0.000  -0.002
   40        0.000  -0.001   0.000  -0.001
   41        0.000   0.004   0.000   0.004
   42        0.000   0.003   0.000   0.003
   43       -0.000   0.001   0.000   0.001
   44        0.000   0.001   0.000   0.001
   45        0.000   0.003   0.000   0.003
   46        0.000   0.006   0.000   0.006
   47       -0.000  -0.003   0.000  -0.003
   48       -0.000  -0.000   0.000  -0.000
   49        0.000   0.002   0.000   0.003
   50        0.000   0.004   0.000   0.005
   51       -0.000  -0.000   0.000  -0.000
   52       -0.000  -0.001   0.000  -0.002
   53        0.000   0.005   0.000   0.005
   54        0.000   0.005   0.000   0.005
   55        0.005   0.029   0.000   0.034
   56        0.004   0.008   0.000   0.012
   57        0.001   0.000   0.000   0.002
   58        0.002   0.012   0.000   0.014
   59        0.015   0.014   2.829   2.859
   60       -0.048  -0.006  -0.498  -0.553
tot         -0.014   0.155   2.331   2.472