 vasp.5.4.4.18Apr17-6-g9f103f2a35 (build Feb 25 2019 10:51:38) complex

 executed on             LinuxIFC date 2021.03.09  15:46:20

 INCAR:
 POTCAR:    PAW_PBE C 08Apr2002
 POTCAR:    PAW_PBE N 08Apr2002
 POTCAR:    PAW_PBE Ni 02Aug2007
 POTCAR:    PAW_PBE Fe 06Sep2000

 POTCAR:    PAW_PBE C 08Apr2002
   VRHFIN =C: s2p2

   TITEL  = PAW_PBE C 08Apr2002
   POMASS =   12.011; ZVAL   =    4.000    mass and valenz
   ENMAX  =  400.000; ENMIN  =  300.000 eV

 POTCAR:    PAW_PBE N 08Apr2002
   VRHFIN =N: s2p3

   TITEL  = PAW_PBE N 08Apr2002
   POMASS =   14.001; ZVAL   =    5.000    mass and valenz
   ENMAX  =  400.000; ENMIN  =  300.000 eV

 POTCAR:    PAW_PBE Ni 02Aug2007
   VRHFIN =Ni:

   TITEL  = PAW_PBE Ni 02Aug2007
   POMASS =   58.690; ZVAL   =   10.000    mass and valenz
   ENMAX  =  269.532; ENMIN  =  202.149 eV

 POTCAR:    PAW_PBE Fe 06Sep2000
   VRHFIN =Fe:  d7 s1

   TITEL  = PAW_PBE Fe 06Sep2000
   POMASS =   55.847; ZVAL   =    8.000    mass and valenz
   ENMAX  =  267.882; ENMIN  =  200.911 eV

  PAW_PBE C 08Apr2002                   :
  PAW_PBE N 08Apr2002                   :
  PAW_PBE Ni 02Aug2007                  :
  PAW_PBE Fe 06Sep2000                  :

 POSCAR:  C  N Ni Fe
  positions in cartesian coordinates
 exchange correlation table for  LEXCH =        8
   RHO(1)=    0.500       N(1)  =     2000
   RHO(2)=  100.500       N(2)  =     4000

 VTST: version 3.2, (02/03/18)

 CHAIN: initializing optimizer

 OPT: Using VASP Conjugate-Gradient optimizer
 CHAIN: Read ICHAIN            0

 POSCAR:  C  N Ni Fe
  positions in cartesian coordinates

 ion  position               nearest neighbor table
   1  0.222  0.001  0.492-   3 1.43  19 1.43   4 1.44
   2  0.057  0.101  0.487-   3 1.43  37 1.43   7 1.44
   3  0.111  0.000  0.489-   1 1.43   2 1.43  17 1.44
   4  0.278  0.102  0.492-  21 1.42   5 1.44   1 1.44
   5  0.224  0.204  0.496-   7 1.44   4 1.44   8 1.45
   6  0.056  0.301  0.491-   7 1.43  41 1.43  11 1.43
   7  0.112  0.201  0.491-   6 1.43   5 1.44   2 1.44
   8  0.281  0.304  0.505-   5 1.45  25 1.45   9 1.47
   9  0.221  0.405  0.508-  54 1.37  11 1.44   8 1.47
  10  0.053  0.501  0.498-  14 1.43  45 1.43  11 1.43
  11  0.110  0.401  0.498-   6 1.43  10 1.43   9 1.44
  12  0.218  0.600  0.514-  54 1.38  14 1.43  15 1.45
  13  0.052  0.700  0.497-  14 1.43  49 1.43  18 1.43
  14  0.108  0.601  0.502-  13 1.43  12 1.43  10 1.43
  15  0.273  0.702  0.517-  16 1.43  12 1.45  29 1.46
  16  0.220  0.800  0.502-  15 1.43  18 1.43  19 1.45
  17  0.055  0.900  0.489-  53 1.43  18 1.43   3 1.44
  18  0.109  0.800  0.495-  17 1.43  16 1.43  13 1.43
  19  0.276  0.901  0.498-   1 1.43  31 1.43  16 1.45
  20  0.555  0.999  0.487-  33 1.42  22 1.42  23 1.42
  21  0.388  0.100  0.490-   4 1.42  26 1.43  22 1.43
  22  0.444  1.000  0.490-  20 1.42  21 1.43  31 1.43
  23  0.611  0.097  0.483-  24 1.42  20 1.42  35 1.43
  24  0.556  0.196  0.487-  23 1.42  27 1.42  26 1.42
  25  0.394  0.299  0.506-  55 1.38  26 1.43   8 1.45
  26  0.445  0.198  0.492-  24 1.42  21 1.43  25 1.43
  27  0.614  0.294  0.491-  28 1.40  39 1.42  24 1.42
  28  0.560  0.388  0.511-  55 1.37  56 1.38  27 1.40
  29  0.382  0.714  0.539-  57 1.33  32 1.46  15 1.46
  30  0.556  0.803  0.511-  58 1.38  33 1.43  32 1.44
  31  0.388  0.901  0.500-  32 1.42  22 1.43  19 1.43
  32  0.444  0.805  0.516-  31 1.42  30 1.44  29 1.46
  33  0.610  0.900  0.494-  20 1.42  51 1.42  30 1.43
  34  0.889  0.999  0.484-  53 1.43  36 1.43  37 1.44
  35  0.722  0.098  0.481-  36 1.42  23 1.43  40 1.43
  36  0.778  0.999  0.483-  35 1.42  34 1.43  51 1.43
  37  0.945  0.100  0.483-  38 1.43   2 1.43  34 1.44
  38  0.890  0.199  0.483-  40 1.42  37 1.43  41 1.43
  39  0.724  0.297  0.487-  27 1.42  40 1.42  44 1.43
  40  0.779  0.198  0.482-  39 1.42  38 1.42  35 1.43
  41  0.945  0.300  0.487-   6 1.43  42 1.43  38 1.43
  42  0.888  0.399  0.490-  44 1.42  45 1.43  41 1.43
  43  0.719  0.493  0.508-  56 1.38  44 1.43  48 1.46
  44  0.777  0.397  0.493-  42 1.42  43 1.43  39 1.43
  45  0.941  0.500  0.495-  42 1.43  10 1.43  46 1.44
  46  0.883  0.599  0.499-  45 1.44  49 1.44  48 1.45
  47  0.718  0.703  0.508-  58 1.38  52 1.43  48 1.46
  48  0.771  0.598  0.506-  46 1.45  43 1.46  47 1.46
  49  0.941  0.699  0.495-  50 1.42  13 1.43  46 1.44
  50  0.887  0.799  0.492-  49 1.42  52 1.43  53 1.44
  51  0.721  0.900  0.490-  33 1.42  52 1.43  36 1.43
  52  0.776  0.800  0.495-  50 1.43  51 1.43  47 1.43
  53  0.943  0.899  0.487-  34 1.43  17 1.43  50 1.44
  54  0.267  0.502  0.523-   9 1.37  12 1.38  59 1.86
  55  0.455  0.387  0.521-  28 1.37  25 1.38  59 1.83
  56  0.615  0.481  0.524-  28 1.38  43 1.38  60 1.92
  57  0.420  0.645  0.584-  29 1.33  59 1.78  60 1.84
  58  0.613  0.710  0.521-  47 1.38  30 1.38  60 1.94
  59  0.401  0.509  0.559-  57 1.78  55 1.83  54 1.86  60 2.26
  60  0.554  0.595  0.575-  57 1.84  56 1.92  58 1.94  59 2.26

  LATTYP: Found a simple orthorhombic cell.
 ALAT       =    12.4000000000
 B/A-ratio  =     1.0330645161
 C/A-ratio  =     1.6129032258

  Lattice vectors:

 A1 = (   0.0000000000, -12.4000000000,   0.0000000000)
 A2 = ( -12.8100000000,   0.0000000000,   0.0000000000)
 A3 = (   0.0000000000,   0.0000000000, -20.0000000000)

Analysis of symmetry for initial positions (statically):
 Subroutine PRICEL returns:
 Original cell was already a primitive cell.

 Routine SETGRP: Setting up the symmetry group for a
 simple orthorhombic supercell.

 Subroutine GETGRP returns: Found  1 space group operations
 (whereof  1 operations were pure point group operations)
 out of a pool of  8 trial point group operations.

The static configuration has the point symmetry C_1 .

Analysis of symmetry for dynamics (positions and initial velocities):
 Subroutine PRICEL returns:
 Original cell was already a primitive cell.

[...]

The dynamic configuration has the point symmetry C_1 .

Analysis of structural, dynamic, and magnetic symmetry:
 Subroutine PRICEL returns:
 Original cell was already a primitive cell.

 Routine SETGRP: Setting up the symmetry group for a
 simple orthorhombic supercell.

 Subroutine GETGRP returns: Found  1 space group operations
 (whereof  1 operations were pure point group operations)
 out of a pool of  8 trial point group operations.

The magnetic configuration has the point symmetry C_1 .

 Subroutine INISYM returns: Found  1 space group operations
 (whereof  1 operations are pure point group operations),
 and found     1 'primitive' translations

 KPOINTS: KPOINTS created by Atomic Simulation Env

Automatic generation of k-mesh.
Space group operators:
 irot       det(A)        alpha          n_x          n_y          n_z        tau_x        tau_y        tau_z
    1     1.000000     0.000000     1.000000     0.000000     0.000000     0.000000     0.000000     0.000000

 Subroutine IBZKPT returns following result:

 Found      2 irreducible k-points:

 Following reciprocal coordinates:
            Coordinates               Weight
  0.250000  0.250000  0.000000      2.000000
 -0.250000  0.250000  0.000000      2.000000

 Following cartesian coordinates:
            Coordinates               Weight
  0.019516  0.020161  0.000000      2.000000
 -0.019516  0.020161  0.000000      2.000000

 Subroutine IBZKPT_HF returns following result:

 Found      4 k-points in 1st BZ
 the following      4 k-points will be used (e.g. in the exchange kernel)
 Following reciprocal coordinates:   # in IRBZ
  0.250000  0.250000  0.000000    0.25000000   1 t-inv F
 -0.250000  0.250000  0.000000    0.25000000   2 t-inv F
 -0.250000 -0.250000  0.000000    0.25000000   1 t-inv T
  0.250000 -0.250000  0.000000    0.25000000   2 t-inv T

 SYSTEM =  unknown system
 POSCAR =   C  N Ni Fe

 Startparameter for this run:
   NWRITE =      2    write-flag & timer
   PREC   = accura    normal or accurate (medium, high low for compatibility)
   ISTART =      1    job   : 0-new  1-cont  2-samecut
   ICHARG =      0    charge: 1-file 2-atom 10-const
   ISPIN  =      2    spin polarized calculation?
   LNONCOLLINEAR =      F non collinear calculations
   LSORBIT =      F    spin-orbit coupling
   INIWAV =      1    electr: 0-lowe 1-rand  2-diag
   LASPH  =      T    aspherical Exc in radial PAW
   METAGGA=      F    non-selfconsistent MetaGGA calc.

 Electronic Relaxation 1
   ENCUT  =  500.0 eV  36.75 Ry    6.06 a.u.  23.36 22.61 36.46*2*pi/ulx,y,z
   ENINI  =  500.0     initial cutoff
   ENAUG  =  644.9 eV  augmentation charge cutoff
   NELM   =    250;   NELMIN=  2; NELMDL=  0     # of ELM steps
   EDIFF  = 0.1E-03   stopping-criterion for ELM
   LREAL  =      F    real-space projection
   NLSPLINE    = F    spline interpolate recip. space projectors
   LCOMPAT=      F    compatible to vasp.4.4
   GGA_COMPAT  = T    GGA compatible to vasp.4.4-vasp.4.6
   LMAXPAW     = -100 max onsite density
   LMAXMIX     =    2 max onsite mixed and CHGCAR
   VOSKOWN=      0    Vosko Wilk Nusair interpolation
   ROPT   =    0.00000   0.00000   0.00000   0.00000
 Ionic relaxation
   EDIFFG = -.3E-01   stopping-criterion for IOM
   NSW    =      0    number of steps for IOM
   NBLOCK =      1;   KBLOCK =      1    inner block; outer block
   IBRION =     -1    ionic relax: 0-MD 1-quasi-New 2-CG
   NFREE  =      1    steps in history (QN), initial steepest desc. (CG)
   ISIF   =      2    stress and relaxation
   IWAVPR =     10    prediction:  0-non 1-charg 2-wave 3-comb
   ISYM   =      3    0-nonsym 1-usesym 2-fastsym
   LCORR  =      T    Harris-Foulkes like correction to forces

   POTIM  = 0.5000    time-step for ionic-motion
   TEIN   =    0.0    initial temperature
   TEBEG  =    0.0;   TEEND  =   0.0 temperature during run
   SMASS  =  -3.00    Nose mass-parameter (am)
   estimated Nose-frequenzy (Omega)   =  0.10E-29 period in steps =****** mass=  -0.375E-26a.u.
   SCALEE = 1.0000    scale energy and forces
   NPACO  =    256;   APACO  = 16.0  distance and # of slots for P.C.
   PSTRESS=    0.0 pullay stress

  Mass of Ions in am
   POMASS =  12.01 14.00 58.69 55.85
  Ionic Valenz
   ZVAL   =   4.00  5.00 10.00  8.00
  Atomic Wigner-Seitz radii
  virtual crystal weights
   VCA    =   1.00  1.00  1.00  1.00
   NELECT =     255.0000    total number of electrons
   NUPDOWN=      -1.0000    fix difference up-down

 DOS related values:
   EMIN   =  10.00;   EMAX   =-10.00  energy-range for DOS
   EFERMI =   0.00
   ISMEAR =     0;   SIGMA  =   0.10  broadening in eV -4-tet -1-fermi 0-gaus

 Electronic relaxation 2 (details)
   IALGO  =     53    algorithm
   LDIAG  =      T    sub-space diagonalisation (order eigenvalues)
   LSUBROT=      F    optimize rotation matrix (better conditioning)
   TURBO    =      0    0=normal 1=particle mesh
   IRESTART =      0    0=no restart 2=restart with 2 vectors
   NREBOOT  =      0    no. of reboots
   NMIN     =      0    reboot dimension
   EREF     =   0.00    reference energy to select bands
   IMIX   =      4    mixing-type and parameters
     AMIX     =   0.40;   BMIX     =  1.00
     AMIX_MAG =   1.60;   BMIX_MAG =  1.00
     AMIN     =   0.10
     WC   =   100.;   INIMIX=   1;  MIXPRE=   1;  MAXMIX= -45

 Intra band minimization:
   WEIMIN = 0.0000     energy-eigenvalue tresh-hold
[...]
   48        0.845   1.738   0.000   2.583
   49        0.862   1.769   0.000   2.631
   50        0.867   1.762   0.000   2.629
   51        0.868   1.762   0.000   2.630
   52        0.865   1.778   0.000   2.643
   53        0.864   1.770   0.000   2.634
   54        1.230   2.672   0.000   3.902
   55        1.231   2.691   0.000   3.922
   56        1.229   2.702   0.000   3.930
   57        1.260   2.597   0.000   3.857
   58        1.233   2.692   0.000   3.925
   59        0.528   0.681   8.538   9.747
   60        0.463   0.579   6.238   7.280
tot         52.945 107.814  14.776 175.536

 magnetization (x)

[...]

  FORCE on cell =-STRESS in cart. coord.  units (eV):
  Direction    XX          YY          ZZ          XY          YZ          ZX
  Alpha Z   107.04317   107.04317   107.04317
  Ewald   50122.13538 49918.02426-58220.16831    38.78681   204.56807    35.99478
  Hartree 49770.02185 49630.14634-48352.69455    25.88820   173.67757     2.54502
  E(xc)    -752.08385  -751.93260  -766.14757    -0.02883     0.06134    -0.00181
  Local  ************************103227.25494   -66.15647  -372.09923   -32.15825
  n-local  -128.12154  -126.30835  -116.18062     1.97405    -2.39773    -1.82572
  augment   182.18981   181.09338   197.58344     2.33196    -7.84016    -2.04958
  Kinetic  3778.54211  3774.74818  4269.09103   -11.11041     0.46292    -2.78939
  Fock     -366.64237  -365.47262  -347.69731    -1.91544     4.25710    -0.66294
  Total     -34.09950   -41.43946    -1.91578   -10.23014     0.68988    -0.94790
  in kB     -17.19720   -20.89892    -0.96617    -5.15930     0.34792    -0.47805

 VOLUME and BASIS-vectors are now :
  energy-cutoff  :      500.00
  volume of cell :     3176.88
      direct lattice vectors                 reciprocal lattice vectors
    12.810000000  0.000000000  0.000000000     0.078064012  0.000000000  0.000000000
     0.000000000 12.400000000  0.000000000     0.000000000  0.080645161  0.000000000
     0.000000000  0.000000000 20.000000000     0.000000000  0.000000000  0.050000000

  length of vectors
    12.810000000 12.400000000 20.000000000     0.078064012  0.080645161  0.050000000

 FORCES acting on ions:
    Electron-Ion                     Ewald-Force                    Non-Local-Force
   0.612E+01 -.537E+01 0.346E+02   -.603E+01 0.508E+01 -.347E+02   -.650E-01 0.174E+00 0.862E-01
   -.136E+00 -.159E+01 0.422E+02   0.428E+00 0.151E+01 -.423E+02   -.282E+00 0.437E-01 0.498E-01
   0.580E+01 -.186E+00 0.380E+02   -.571E+01 0.163E+00 -.379E+02   -.108E+00 0.307E-01 -.101E+00
   0.150E+02 0.361E+01 0.327E+02   -.152E+02 -.368E+01 -.324E+02   0.260E+00 0.897E-01 -.218E+00
   0.932E+01 0.684E+01 0.221E+02   -.923E+01 -.678E+01 -.221E+02   -.521E-01 -.630E-01 0.658E-01
   0.402E+01 0.699E+01 0.398E+02   -.387E+01 -.734E+01 -.398E+02   -.144E+00 0.312E+00 0.589E-01
   0.492E+01 0.890E+01 0.321E+02   -.485E+01 -.900E+01 -.320E+02   -.108E+00 0.125E+00 -.780E-01
   0.239E+02 0.251E+02 0.316E+01   -.240E+02 -.251E+02 -.278E+01   0.131E+00 -.106E+00 -.404E+00
   0.370E+02 0.578E+02 0.130E+02   -.385E+02 -.604E+02 -.137E+02   0.138E+01 0.296E+01 0.850E+00
   0.166E+02 0.327E+01 0.270E+02   -.166E+02 -.317E+01 -.269E+02   0.126E+00 -.581E-01 -.114E+00
   0.190E+02 0.152E+02 0.330E+02   -.191E+02 -.155E+02 -.332E+02   0.125E+00 0.214E+00 0.176E+00
   0.452E+02 -.444E+02 -.165E+01   -.464E+02 0.475E+02 0.114E+01   0.123E+01 -.327E+01 0.525E+00
   0.957E+01 -.871E+01 0.312E+02   -.953E+01 0.895E+01 -.311E+02   -.203E-01 -.231E+00 -.686E-01
   0.235E+02 -.959E+01 0.244E+02   -.235E+02 0.991E+01 -.246E+02   -.255E-01 -.297E+00 0.147E+00
   0.294E+02 -.236E+02 -.386E+01   -.286E+02 0.234E+02 0.381E+01   -.897E+00 0.288E+00 -.579E-01
   0.139E+02 -.179E+02 0.296E+02   -.137E+02 0.176E+02 -.297E+02   -.251E+00 0.134E+00 0.218E+00
   0.142E+01 -.611E+01 0.441E+02   -.119E+01 0.618E+01 -.442E+02   -.221E+00 -.613E-01 0.733E-01
   0.864E+01 -.716E+01 0.393E+02   -.852E+01 0.724E+01 -.393E+02   -.142E+00 -.574E-01 0.577E-01
   0.122E+02 -.811E+01 0.267E+02   -.123E+02 0.824E+01 -.263E+02   0.768E-01 0.114E-01 -.355E+00
   -.114E+01 -.193E+01 0.663E+02   0.771E+00 0.195E+01 -.661E+02   0.324E+00 -.308E-01 -.130E+00
   0.746E+01 0.685E+01 0.563E+02   -.799E+01 -.715E+01 -.564E+02   0.461E+00 0.305E+00 0.105E+00
   0.589E+01 -.172E+01 0.611E+02   -.611E+01 0.155E+01 -.612E+02   0.222E+00 0.161E+00 0.134E+00
   -.634E+01 0.821E+01 0.802E+02   0.641E+01 -.851E+01 -.803E+02   -.566E-01 0.305E+00 0.173E+00
   -.285E+01 0.190E+02 0.772E+02   0.264E+01 -.195E+02 -.771E+02   0.212E+00 0.550E+00 -.621E-01
   0.413E+02 0.549E+02 0.243E+02   -.435E+02 -.576E+02 -.251E+02   0.235E+01 0.281E+01 0.778E+00
   0.103E+02 0.217E+02 0.615E+02   -.106E+02 -.221E+02 -.617E+02   0.323E+00 0.360E+00 0.178E+00
   -.187E+02 0.258E+02 0.810E+02   0.191E+02 -.267E+02 -.816E+02   -.322E+00 0.696E+00 0.659E+00
   -.363E+02 0.453E+02 0.262E+02   0.377E+02 -.484E+02 -.278E+02   -.149E+01 0.315E+01 0.175E+01
   0.436E+02 -.931E+02 -.710E+02   -.439E+02 0.935E+02 0.701E+02   0.647E+00 -.110E+01 0.165E+01
   0.132E+02 -.457E+02 0.906E+01   -.156E+02 0.486E+02 -.961E+01   0.241E+01 -.289E+01 0.575E+00
   0.894E+01 -.144E+02 0.353E+02   -.905E+01 0.140E+02 -.354E+02   0.189E+00 0.321E+00 0.141E+00
   0.258E+01 -.279E+02 -.604E+01   -.294E+01 0.274E+02 0.612E+01   0.430E+00 0.716E+00 -.189E+00
   -.507E+01 -.143E+02 0.527E+02   0.486E+01 0.145E+02 -.530E+02   0.195E+00 -.123E+00 0.290E+00
   -.655E+01 -.316E+01 0.542E+02   0.671E+01 0.313E+01 -.541E+02   -.167E+00 0.153E-01 -.229E-01
   -.899E+01 0.259E+01 0.725E+02   0.899E+01 -.267E+01 -.723E+02   -.311E-01 0.763E-01 -.107E+00
   -.851E+01 0.931E+00 0.619E+02   0.872E+01 -.863E+00 -.620E+02   -.179E+00 -.616E-01 0.123E+00
   -.300E+01 0.421E+01 0.544E+02   0.326E+01 -.426E+01 -.544E+02   -.250E+00 0.649E-01 0.606E-01
   -.842E+01 0.260E+01 0.597E+02   0.866E+01 -.268E+01 -.596E+02   -.225E+00 0.702E-01 -.396E-01
   -.213E+02 0.102E+02 0.682E+02   0.218E+02 -.104E+02 -.680E+02   -.477E+00 0.213E+00 -.159E+00
   -.111E+02 0.932E+01 0.736E+02   0.114E+02 -.957E+01 -.737E+02   -.251E+00 0.256E+00 0.172E+00
   -.293E+01 0.505E+01 0.530E+02   0.312E+01 -.513E+01 -.530E+02   -.182E+00 0.570E-01 0.843E-01
   -.106E+02 0.367E+01 0.480E+02   0.111E+02 -.354E+01 -.480E+02   -.464E+00 -.110E+00 0.919E-01
   -.617E+02 -.130E+02 0.144E+02   0.653E+02 0.133E+02 -.155E+02   -.366E+01 -.393E+00 0.105E+01
   -.240E+02 0.501E+01 0.529E+02   0.245E+02 -.507E+01 -.531E+02   -.497E+00 0.795E-01 0.187E+00
   -.592E+00 -.211E+01 0.287E+02   0.567E+00 0.225E+01 -.286E+02   -.137E-01 -.168E+00 -.105E+00
   -.556E+01 -.342E+01 0.169E+02   0.556E+01 0.350E+01 -.168E+02   -.347E-04 -.777E-01 -.367E-02
   -.584E+02 0.165E+01 0.115E+02   0.616E+02 -.156E+01 -.124E+02   -.338E+01 0.149E+00 0.890E+00
   -.227E+02 -.366E+01 -.254E+00   0.229E+02 0.385E+01 0.135E+00   -.131E+00 -.224E+00 0.898E-01
   -.117E+01 -.293E+00 0.276E+02   0.132E+01 0.291E+00 -.275E+02   -.154E+00 0.323E-01 -.695E-01
   -.843E+01 -.690E+01 0.396E+02   0.880E+01 0.681E+01 -.396E+02   -.359E+00 0.885E-01 0.808E-01
   -.138E+02 -.111E+02 0.481E+02   0.138E+02 0.113E+02 -.480E+02   -.984E-01 -.191E+00 -.155E+00
   -.195E+02 -.709E+01 0.372E+02   0.200E+02 0.718E+01 -.373E+02   -.392E+00 -.804E-01 0.147E+00
   -.154E+01 -.761E+00 0.471E+02   0.177E+01 0.759E+00 -.471E+02   -.204E+00 0.186E-01 0.338E-01
   0.636E+02 0.168E+02 -.342E+02   -.442E+02 -.166E+02 0.402E+02   -.184E+02 -.287E+00 -.595E+01
   0.952E+01 0.700E+02 -.320E+02   -.191E+02 -.541E+02 0.394E+02   0.914E+01 -.152E+02 -.719E+01
   -.488E+02 -.700E+01 -.556E+02   0.388E+02 0.223E+02 0.620E+02   0.960E+01 -.148E+02 -.636E+01
   0.476E+02 -.138E+03 -.524E+03   -.458E+02 0.131E+03 0.544E+03   -.242E+01 0.715E+01 -.192E+02
   -.163E+02 -.831E+01 -.342E+02   0.545E+01 -.884E+01 0.392E+02   0.106E+02 0.165E+02 -.516E+01
   0.931E+02 0.134E+03 -.562E+03   -.967E+02 -.135E+03 0.560E+03   0.226E+01 0.953E-01 0.181E+01
   -.211E+03 -.367E+02 -.658E+03   0.206E+03 0.377E+02 0.653E+03   0.516E+01 -.783E+00 0.533E+01
   -.129E+02 0.167E+01 0.308E+02   0.114E-12 -.185E-12 -.341E-12   0.117E+02 -.209E+01 -.274E+02

 POSITION                                       TOTAL-FORCE (eV/Angst)
      2.84363      0.00702      9.84442         0.024365     -0.109389      0.033706
      0.72887      1.24880      9.73492        -0.008309     -0.041003      0.028123
      1.41921      0.00182      9.77858        -0.021274      0.013809      0.013463
      3.55484      1.25965      9.84841         0.072649      0.030388      0.001595
      2.87225      2.52417      9.91027         0.025992     -0.011002      0.013324
      0.71892      3.72944      9.81664        -0.003338     -0.026729      0.028129
      1.44030      2.49851      9.81562        -0.038224      0.028986      0.009359
      3.59438      3.76960     10.09338         0.026706     -0.131027     -0.050172
      2.82730      5.01713     10.16593         0.024608      0.513544      0.120000
      0.67782      6.20962      9.95916         0.084308      0.039306      0.029335
      1.40808      4.97695      9.95437        -0.008223     -0.011204      0.045669
      2.78767      7.43974     10.28961         0.092735     -0.292887      0.046464
      0.67213      8.68047      9.93075         0.018108     -0.005092      0.021683
      1.38258      7.44904     10.03874        -0.051967     -0.000563      0.039148
      3.50117      8.70532     10.34304        -0.217927      0.122434     -0.112004
      2.81844      9.91877     10.03641         0.020175     -0.169223      0.094301
      0.70148     11.15903      9.78157        -0.010587      0.001616      0.038092
      1.39513      9.91694      9.89224        -0.031529      0.014465      0.036545
      3.54126     11.16820      9.96115        -0.031415      0.150863     -0.013914
      7.10348     12.38689      9.74957        -0.027135     -0.014778      0.065456
      4.97320      1.23778      9.79834        -0.048819      0.020525      0.058416
      5.68212     12.39925      9.80688         0.017344      0.004870      0.059840
      7.82976      1.20820      9.65325         0.009795      0.024277      0.049603
      7.12223      2.43323      9.73545         0.016255      0.067967      0.088527
      5.04614      3.70251     10.11052         0.273860      0.177222      0.098852
      5.70308      2.46103      9.83872        -0.020333     -0.018182      0.061821
      7.85906      3.64039      9.82655         0.044720     -0.101710      0.048586
      7.17922      4.80559     10.21649        -0.221315      0.189935      0.202618
      4.88786      8.85429     10.78802         0.396605     -0.807849      0.814204
      7.12143      9.96129     10.21315         0.189604     -0.180175      0.059130
      4.97381     11.17241      9.99798         0.089982     -0.060782      0.098063
      5.68418      9.98276     10.31385         0.083766      0.252057     -0.124654
      7.81675     11.16429      9.87819        -0.005382      0.054424      0.064136
     11.38963     12.39131      9.67049        -0.021161     -0.016319      0.030551
      9.25456      1.21776      9.62196        -0.030885     -0.005931      0.052116
      9.96203     12.38385      9.66665         0.019052      0.008014      0.029959
     12.11165      1.23437      9.66223         0.004413      0.024727      0.035413
     11.40238      2.47086      9.65358        -0.001588     -0.004378      0.037946
      9.27168      3.67681      9.74739        -0.054039     -0.007211      0.068040
      9.97822      2.45320      9.63211        -0.001533      0.020876      0.049870
     12.10283      3.71915      9.73246         0.001168     -0.021215      0.028759
     11.38025      4.95246      9.80938        -0.003606      0.016636      0.044550
      9.21423      6.11013     10.15189        -0.271473     -0.145248      0.042597
      9.95909      4.92533      9.86410         0.039510      0.024519      0.045034
     12.05960      6.20222      9.90666        -0.039012     -0.033001     -0.009158
     11.31511      7.42992      9.97471         0.007973     -0.009001      0.014877
      9.19668      8.71310     10.15569        -0.424464      0.257810      0.030371
      9.87594      7.41616     10.12512         0.101931     -0.046731     -0.029696
     12.05106      8.66629      9.90500        -0.007255      0.039382     -0.002173
     11.36190      9.90990      9.83156        -0.010124     -0.006061      0.032371
      9.23906     11.15663      9.80404        -0.036577     -0.038009      0.036245
      9.93856      9.91530      9.90629         0.055900      0.003675      0.004950
     12.08521     11.14835      9.74104         0.012217      0.023274      0.031880
      3.42234      6.22075     10.45450        -0.561326     -0.108280     -0.470023
      5.82561      4.79386     10.42763         0.386516     -0.572407     -0.391453
      7.87796      5.96468     10.47379         0.467051     -0.803514     -0.523344
      5.37406      8.00090     11.68042        -0.871638      0.872782     -0.868967
      7.85135      8.81011     10.42699         0.693498      0.772085     -0.595772
      5.13102      6.30835     11.18737        -0.415054     -0.122354     -0.013859
      7.09516      7.38159     11.49723         0.194706      0.150790      0.221475
    total drift:                               -0.002066     -0.001346      0.000648

  FREE ENERGIE OF THE ION-ELECTRON SYSTEM (eV)
  free  energy   TOTEN  =      -627.14755914 eV

  energy  without entropy=     -627.14755914  energy(sigma->0) =     -627.14755914

 stress matrix after NEB project (eV)
    -34.09950    -10.23003     -0.94790
    -10.23014    -41.43946      0.68659
     -0.94857      0.68988     -1.91578
  FORCES: max atom, RMS     1.508842    0.392767
  FORCE total and by dimension    3.042362    0.872782
  Stress total and by dimension   55.639285   41.439465
 writing wavefunctions
 vacuum level on the upper side and lower side of the slab         1.567         1.532

 total charge

[...]

 magnetization (x)

# of ion       s       p       d       tot
    1       -0.000  -0.001   0.000  -0.001
    2        0.000   0.000   0.000   0.000
    3       -0.000  -0.001   0.000  -0.001
    4       -0.000  -0.000   0.000  -0.000
    5        0.000   0.000   0.000   0.000
    6        0.000  -0.000   0.000  -0.000
    7       -0.000  -0.001   0.000  -0.001
    8        0.000   0.000   0.000   0.000
    9       -0.000  -0.004   0.000  -0.005
   10       -0.000  -0.002   0.000  -0.002
   11        0.000   0.001   0.000   0.001
   12       -0.001  -0.006   0.000  -0.006
   13        0.000  -0.001   0.000  -0.001
   14        0.001   0.001   0.000   0.002
   15       -0.000   0.002   0.000   0.002
   16       -0.000  -0.001   0.000  -0.001
   17        0.000   0.000   0.000   0.000
   18       -0.000  -0.000   0.000  -0.000
   19       -0.000  -0.000   0.000  -0.001
   20       -0.000  -0.001   0.000  -0.001
   21       -0.000  -0.000   0.000  -0.000
   22       -0.000  -0.000   0.000  -0.000
   23       -0.000  -0.001   0.000  -0.001
   24       -0.000  -0.001   0.000  -0.001
   25       -0.000  -0.003   0.000  -0.003
   26       -0.000  -0.000   0.000  -0.000
   27        0.000   0.001   0.000   0.001
   28       -0.000  -0.004   0.000  -0.004
   29       -0.002  -0.025   0.000  -0.027
   30       -0.000  -0.002   0.000  -0.003
   31       -0.000  -0.001   0.000  -0.001
   32       -0.000  -0.002   0.000  -0.002
   33       -0.001  -0.002   0.000  -0.003
   34        0.000  -0.000   0.000  -0.000
   35       -0.000  -0.000   0.000  -0.000
   36       -0.000  -0.001   0.000  -0.001
   37       -0.000  -0.001   0.000  -0.001
   38        0.000   0.000   0.000   0.000
   39       -0.000  -0.001   0.000  -0.001
   40        0.000  -0.000   0.000  -0.000
   41       -0.000  -0.000   0.000  -0.000
   42       -0.000  -0.000   0.000  -0.001
   43       -0.001  -0.003   0.000  -0.004
   44       -0.000  -0.001   0.000  -0.001
   45       -0.000  -0.001   0.000  -0.001
   46        0.000   0.001   0.000   0.001
   47       -0.001  -0.000   0.000  -0.001
   48       -0.001  -0.009   0.000  -0.010
   49       -0.000  -0.004   0.000  -0.004
   50       -0.000   0.000   0.000   0.000
   51        0.000   0.001   0.000   0.001
   52       -0.001  -0.006   0.000  -0.006
   53       -0.000  -0.001   0.000  -0.001
   54        0.007   0.030   0.000   0.037
   55       -0.001  -0.005   0.000  -0.006
   56        0.002   0.001   0.000   0.003
   57        0.001   0.004   0.000   0.005
   58       -0.007  -0.033   0.000  -0.040
   59        0.021   0.035   0.411   0.466
   60       -0.029  -0.056  -3.076  -3.161
tot         -0.015  -0.107  -2.665  -2.786