 vasp.5.4.4.18Apr17-6-g9f103f2a35 (build Feb 25 2019 10:51:38) complex

 executed on             LinuxIFC date 2021.03.10  03:44:09

 INCAR:
 POTCAR:    PAW_PBE C 08Apr2002
 POTCAR:    PAW_PBE N 08Apr2002
 POTCAR:    PAW_PBE Fe 06Sep2000

 POTCAR:    PAW_PBE C 08Apr2002
   VRHFIN =C: s2p2

   TITEL  = PAW_PBE C 08Apr2002
   POMASS =   12.011; ZVAL   =    4.000    mass and valenz
   ENMAX  =  400.000; ENMIN  =  300.000 eV

 POTCAR:    PAW_PBE N 08Apr2002
   VRHFIN =N: s2p3

   TITEL  = PAW_PBE N 08Apr2002
   POMASS =   14.001; ZVAL   =    5.000    mass and valenz
   ENMAX  =  400.000; ENMIN  =  300.000 eV

 POTCAR:    PAW_PBE Fe 06Sep2000
   VRHFIN =Fe:  d7 s1

   TITEL  = PAW_PBE Fe 06Sep2000
   POMASS =   55.847; ZVAL   =    8.000    mass and valenz
   ENMAX  =  267.882; ENMIN  =  200.911 eV

  PAW_PBE C 08Apr2002                   :
  PAW_PBE N 08Apr2002                   :
  PAW_PBE Fe 06Sep2000                  :

 POSCAR:  C  N Fe
  positions in cartesian coordinates
 exchange correlation table for  LEXCH =        8
   RHO(1)=    0.500       N(1)  =     2000
   RHO(2)=  100.500       N(2)  =     4000

 VTST: version 3.2, (02/03/18)

 CHAIN: initializing optimizer

 OPT: Using VASP Conjugate-Gradient optimizer
 CHAIN: Read ICHAIN            0

 POSCAR:  C  N Fe
  positions in cartesian coordinates

 ion  position               nearest neighbor table
   1  0.223  0.003  0.497-  19 1.43   4 1.43   3 1.43
   2  0.058  0.102  0.495-   3 1.42  38 1.44   7 1.44
   3  0.112  0.002  0.496-   2 1.42  17 1.43   1 1.43
   4  0.280  0.104  0.498-  21 1.43   1 1.43   5 1.44
   5  0.227  0.206  0.498-   7 1.44   4 1.44   8 1.45
   6  0.059  0.302  0.496-   7 1.42  11 1.43  42 1.43
   7  0.115  0.203  0.496-   6 1.42   2 1.44   5 1.44
   8  0.284  0.309  0.501-  25 1.45   5 1.45   9 1.45
   9  0.226  0.409  0.501-  55 1.39  11 1.44   8 1.45
  10  0.056  0.501  0.497-  14 1.42  46 1.42  11 1.43
  11  0.115  0.403  0.497-   6 1.43  10 1.43   9 1.44
  12  0.218  0.604  0.500-  55 1.38  14 1.40  15 1.42
  13  0.053  0.702  0.496-  18 1.41  50 1.42  14 1.42
  14  0.109  0.603  0.497-  12 1.40  10 1.42  13 1.42
  15  0.273  0.705  0.501-  58 1.38  16 1.41  12 1.42
  16  0.219  0.803  0.498-  15 1.41  19 1.42  18 1.42
  17  0.054  0.902  0.495-  18 1.42   3 1.43  54 1.43
  18  0.109  0.802  0.496-  13 1.41  17 1.42  16 1.42
  19  0.277  0.902  0.499-  16 1.42  32 1.43   1 1.43
  20  0.555  0.995  0.500-  22 1.43  23 1.43  34 1.44
  21  0.391  0.101  0.499-   4 1.43  26 1.43  22 1.45
  22  0.445  0.998  0.500-  20 1.43  32 1.43  21 1.45
  23  0.612  0.096  0.499-  24 1.43  20 1.43  36 1.43
  24  0.558  0.197  0.499-  27 1.42  26 1.43  23 1.43
  25  0.397  0.305  0.502-  56 1.39   8 1.45  26 1.45
  26  0.448  0.201  0.500-  24 1.43  21 1.43  25 1.45
  27  0.616  0.296  0.498-  28 1.41  24 1.42  40 1.42
  28  0.562  0.395  0.501-  56 1.38  27 1.41  29 1.42
  29  0.618  0.495  0.501-  57 1.38  44 1.40  28 1.42
  30  0.609  0.690  0.502-  57 1.39  48 1.44  31 1.45
  31  0.551  0.791  0.503-  33 1.45  34 1.45  30 1.45
  32  0.388  0.898  0.500-  19 1.43  22 1.43  33 1.45
  33  0.439  0.794  0.503-  58 1.39  31 1.45  32 1.45
  34  0.608  0.893  0.501-  52 1.44  20 1.44  31 1.45
  35  0.889  0.999  0.495-  54 1.42  38 1.43  37 1.44
  36  0.723  0.097  0.497-  37 1.42  41 1.43  23 1.43
  37  0.777  0.997  0.497-  36 1.42  52 1.44  35 1.44
  38  0.946  0.099  0.495-  39 1.42  35 1.43   2 1.44
  39  0.892  0.199  0.495-  38 1.42  42 1.43  41 1.43
  40  0.726  0.296  0.497-  45 1.41  41 1.42  27 1.42
  41  0.781  0.197  0.496-  40 1.42  36 1.43  39 1.43
  42  0.948  0.299  0.495-  43 1.42  39 1.43   6 1.43
  43  0.892  0.398  0.496-  46 1.42  45 1.42  42 1.42
  44  0.726  0.496  0.498-  29 1.40  49 1.42  45 1.42
  45  0.782  0.396  0.496-  40 1.41  43 1.42  44 1.42
  46  0.946  0.500  0.496-  43 1.42  10 1.42  47 1.43
  47  0.889  0.599  0.496-  50 1.42  49 1.42  46 1.43
  48  0.721  0.695  0.499-  53 1.43  49 1.43  30 1.44
  49  0.779  0.597  0.498-  44 1.42  47 1.42  48 1.43
  50  0.943  0.700  0.496-  47 1.42  13 1.42  51 1.42
  51  0.887  0.799  0.496-  50 1.42  54 1.43  53 1.43
  52  0.720  0.896  0.498-  53 1.42  37 1.44  34 1.44
  53  0.776  0.797  0.498-  52 1.42  48 1.43  51 1.43
  54  0.943  0.900  0.495-  35 1.42  51 1.43  17 1.43
  55  0.276  0.510  0.504-  12 1.38   9 1.39  59 1.90
  56  0.456  0.401  0.504-  28 1.38  25 1.39  59 1.92
  57  0.560  0.589  0.505-  29 1.38  30 1.39  59 1.90
  58  0.380  0.699  0.505-  15 1.38  33 1.39  59 1.92
  59  0.418  0.551  0.515-  55 1.90  57 1.90  56 1.92  58 1.92  60 2.16
  60  0.421  0.558  0.623-  59 2.16

  LATTYP: Found a triclinic cell.
 ALAT       =    12.2966000000
 B/A-ratio  =     1.4377908688
 C/A-ratio  =     2.2141298814
 COS(alpha) =     0.0101942360
 COS(beta)  =     0.5001088667
 COS(gamma) =     0.6846169898

  Lattice vectors:

 A1 = (  -0.1837689738,  12.2952267374,   0.0000000000)
 A2 = (  12.7046310262,  12.2952267374,   0.0000000000)
 A3 = ( -12.6101482908,  13.4291436692, -20.0477432967)

Analysis of symmetry for initial positions (statically):
 Subroutine PRICEL returns:
 Original cell was already a primitive cell.

 Routine SETGRP: Setting up the symmetry group for a
 triclinic supercell.

 Subroutine GETGRP returns: Found  1 space group operations
 (whereof  1 operations were pure point group operations)
 out of a pool of  2 trial point group operations.

The static configuration has the point symmetry C_1 .

Analysis of symmetry for dynamics (positions and initial velocities):
 Subroutine PRICEL returns:
 Original cell was already a primitive cell.

[...]

The dynamic configuration has the point symmetry C_1 .

Analysis of structural, dynamic, and magnetic symmetry:
 Subroutine PRICEL returns:
 Original cell was already a primitive cell.

 Routine SETGRP: Setting up the symmetry group for a
 triclinic supercell.

 Subroutine GETGRP returns: Found  1 space group operations
 (whereof  1 operations were pure point group operations)
 out of a pool of  2 trial point group operations.

The magnetic configuration has the point symmetry C_1 .

 Subroutine INISYM returns: Found  1 space group operations
 (whereof  1 operations are pure point group operations),
 and found     1 'primitive' translations

 KPOINTS: KPOINTS created by Atomic Simulation Env

Automatic generation of k-mesh.
Space group operators:
 irot       det(A)        alpha          n_x          n_y          n_z        tau_x        tau_y        tau_z
    1     1.000000     0.000000     1.000000     0.000000     0.000000     0.000000     0.000000     0.000000

 Subroutine IBZKPT returns following result:

 Found      2 irreducible k-points:

 Following reciprocal coordinates:
            Coordinates               Weight
  0.250000  0.250000  0.000000      2.000000
 -0.250000  0.250000 -0.000000      2.000000

 Following cartesian coordinates:
            Coordinates               Weight
  0.019397  0.020623  0.001613      2.000000
 -0.019397  0.020043  0.000687      2.000000

 Subroutine IBZKPT_HF returns following result:

 Found      4 k-points in 1st BZ
 the following      4 k-points will be used (e.g. in the exchange kernel)
 Following reciprocal coordinates:   # in IRBZ
  0.250000  0.250000  0.000000    0.25000000   1 t-inv F
 -0.250000  0.250000 -0.000000    0.25000000   2 t-inv F
 -0.250000 -0.250000  0.000000    0.25000000   1 t-inv T
  0.250000 -0.250000  0.000000    0.25000000   2 t-inv T

 SYSTEM =  unknown system
 POSCAR =   C  N Fe

 Startparameter for this run:
   NWRITE =      2    write-flag & timer
   PREC   = accura    normal or accurate (medium, high low for compatibility)
   ISTART =      1    job   : 0-new  1-cont  2-samecut
   ICHARG =      0    charge: 1-file 2-atom 10-const
   ISPIN  =      2    spin polarized calculation?
   LNONCOLLINEAR =      F non collinear calculations
   LSORBIT =      F    spin-orbit coupling
   INIWAV =      1    electr: 0-lowe 1-rand  2-diag
   LASPH  =      T    aspherical Exc in radial PAW
   METAGGA=      F    non-selfconsistent MetaGGA calc.

 Electronic Relaxation 1
   ENCUT  =  500.0 eV  36.75 Ry    6.06 a.u.  23.50 22.42 36.62*2*pi/ulx,y,z
   ENINI  =  500.0     initial cutoff
   ENAUG  =  644.9 eV  augmentation charge cutoff
   NELM   =    250;   NELMIN=  2; NELMDL=  0     # of ELM steps
   EDIFF  = 0.1E-03   stopping-criterion for ELM
   LREAL  =      F    real-space projection
   NLSPLINE    = F    spline interpolate recip. space projectors
   LCOMPAT=      F    compatible to vasp.4.4
   GGA_COMPAT  = T    GGA compatible to vasp.4.4-vasp.4.6
   LMAXPAW     = -100 max onsite density
   LMAXMIX     =    2 max onsite mixed and CHGCAR
   VOSKOWN=      0    Vosko Wilk Nusair interpolation
   ROPT   =    0.00000   0.00000   0.00000
 Ionic relaxation
   EDIFFG = -.3E-01   stopping-criterion for IOM
   NSW    =      0    number of steps for IOM
   NBLOCK =      1;   KBLOCK =      1    inner block; outer block
   IBRION =     -1    ionic relax: 0-MD 1-quasi-New 2-CG
   NFREE  =      1    steps in history (QN), initial steepest desc. (CG)
   ISIF   =      2    stress and relaxation
   IWAVPR =     10    prediction:  0-non 1-charg 2-wave 3-comb
   ISYM   =      3    0-nonsym 1-usesym 2-fastsym
   LCORR  =      T    Harris-Foulkes like correction to forces

   POTIM  = 0.5000    time-step for ionic-motion
   TEIN   =    0.0    initial temperature
   TEBEG  =    0.0;   TEEND  =   0.0 temperature during run
   SMASS  =  -3.00    Nose mass-parameter (am)
   estimated Nose-frequenzy (Omega)   =  0.10E-29 period in steps =****** mass=  -0.380E-26a.u.
   SCALEE = 1.0000    scale energy and forces
   NPACO  =    256;   APACO  = 16.0  distance and # of slots for P.C.
   PSTRESS=    0.0 pullay stress

  Mass of Ions in am
   POMASS =  12.01 14.00 55.85
  Ionic Valenz
   ZVAL   =   4.00  5.00  8.00
  Atomic Wigner-Seitz radii
  virtual crystal weights
   VCA    =   1.00  1.00  1.00
   NELECT =     252.0000    total number of electrons
   NUPDOWN=      -1.0000    fix difference up-down

 DOS related values:
   EMIN   =  10.00;   EMAX   =-10.00  energy-range for DOS
   EFERMI =   0.00
   ISMEAR =     0;   SIGMA  =   0.10  broadening in eV -4-tet -1-fermi 0-gaus

 Electronic relaxation 2 (details)
   IALGO  =     53    algorithm
   LDIAG  =      T    sub-space diagonalisation (order eigenvalues)
   LSUBROT=      F    optimize rotation matrix (better conditioning)
   TURBO    =      0    0=normal 1=particle mesh
   IRESTART =      0    0=no restart 2=restart with 2 vectors
   NREBOOT  =      0    no. of reboots
   NMIN     =      0    reboot dimension
   EREF     =   0.00    reference energy to select bands
   IMIX   =      4    mixing-type and parameters
     AMIX     =   0.40;   BMIX     =  1.00
     AMIX_MAG =   1.60;   BMIX_MAG =  1.00
     AMIN     =   0.10
     WC   =   100.;   INIMIX=   1;  MIXPRE=   1;  MAXMIX= -45

 Intra band minimization:
   WEIMIN = 0.0000     energy-eigenvalue tresh-hold
   EBREAK =  0.16E-06  absolut break condition
   DEPER  =   0.30     relativ break condition

   TIME   =   0.20     timestep for ELM

  volume/ion in A,a.u.               =      52.95       357.31
[...]
   48        0.863   1.765   0.000   2.628
   49        0.870   1.782   0.000   2.653
   50        0.871   1.783   0.000   2.654
   51        0.866   1.770   0.000   2.635
   52        0.862   1.763   0.000   2.625
   53        0.866   1.766   0.000   2.632
   54        0.867   1.774   0.000   2.642
   55        1.231   2.662   0.000   3.893
   56        1.234   2.657   0.000   3.890
   57        1.231   2.662   0.000   3.893
   58        1.234   2.657   0.000   3.890
   59        0.489   0.692   6.475   7.656
   60        0.481   0.072   6.255   6.808
tot         52.599 106.798  12.731 172.128

 magnetization (x)

[...]

  FORCE on cell =-STRESS in cart. coord.  units (eV):
  Direction    XX          YY          ZZ          XY          YZ          ZX
  Alpha Z   108.51093   108.51093   108.51093
  Ewald   49535.35935 49568.56962-57890.82085    30.50789    -0.20627     0.76095
  Hartree 49035.06082 49032.82405-48129.43941    -9.28822     0.83923     1.77127
  E(xc)    -735.08613  -734.64724  -749.35851     0.41477     0.01517     0.00860
  Local  ************************102836.61926    -7.75249    -0.47948    -2.47783
  n-local  -167.28116  -168.62779  -166.58775    -0.84483    -0.02168    -0.01178
  augment    50.87246    48.16652    49.84762    -2.85588    -0.07635    -0.04734
  Kinetic  3737.69698  3726.26621  4253.79855   -16.07378    -0.15076    -0.05635
  Fock     -344.05386  -341.65005  -312.03997     2.30612     0.06988     0.04566
  Total     -40.39444   -39.59607     0.52987    -3.58643    -0.01027    -0.00681
  in kB     -20.37188   -19.96924     0.26722    -1.80872    -0.00518    -0.00344

 VOLUME and BASIS-vectors are now :
  energy-cutoff  :      500.00
  volume of cell :     3176.88
      direct lattice vectors                 reciprocal lattice vectors
    12.888400000  0.000000000  0.000000000     0.077589150  0.001159676  0.001853713
    -0.183768974 12.295226737  0.000000000     0.000000000  0.081332376  0.004600226
    -0.462020683 -1.133916932 20.047743297     0.000000000  0.000000000  0.049880926

  length of vectors
    12.888400000 12.296600000 20.085100000     0.077619954  0.081462368  0.049880926

 FORCES acting on ions:
    Electron-Ion                     Ewald-Force                    Non-Local-Force
   0.488E+01 -.810E+01 0.123E+02   -.510E+01 0.841E+01 -.124E+02   0.213E+00 -.262E+00 0.553E-01
   0.446E+01 -.257E+01 0.172E+02   -.440E+01 0.255E+01 -.172E+02   -.471E-01 -.171E-01 0.405E-01
   0.315E+01 -.402E+01 0.160E+02   -.323E+01 0.405E+01 -.160E+02   0.518E-01 -.191E-01 0.701E-02
   0.635E+01 0.232E+00 0.940E+01   -.650E+01 -.177E+00 -.938E+01   0.129E+00 -.853E-01 -.211E-03
   0.589E+01 0.877E+01 0.106E+02   -.595E+01 -.860E+01 -.106E+02   -.182E-01 -.177E+00 0.438E-01
   0.743E+01 0.103E+02 0.174E+02   -.740E+01 -.105E+02 -.174E+02   -.217E-01 0.316E+00 0.560E-01
   0.253E+01 0.977E+01 0.149E+02   -.241E+01 -.990E+01 -.149E+02   -.697E-01 0.904E-01 0.104E-01
   0.170E+02 0.276E+02 0.103E+02   -.170E+02 -.276E+02 -.103E+02   -.126E-02 -.249E-01 0.827E-01
   0.307E+02 0.571E+02 0.196E+02   -.320E+02 -.601E+02 -.197E+02   0.130E+01 0.318E+01 0.128E+00
   0.182E+02 0.104E+02 0.177E+02   -.186E+02 -.106E+02 -.177E+02   0.351E+00 0.159E+00 -.165E-01
   0.162E+02 0.193E+02 0.196E+02   -.164E+02 -.196E+02 -.196E+02   0.172E+00 0.232E+00 0.615E-01
   0.555E+02 -.255E+02 0.321E+02   -.573E+02 0.281E+02 -.323E+02   0.173E+01 -.262E+01 0.293E+00
   0.155E+02 -.703E+01 0.210E+02   -.156E+02 0.741E+01 -.210E+02   0.139E+00 -.302E+00 0.366E-01
   0.323E+02 -.733E+01 0.229E+02   -.326E+02 0.763E+01 -.229E+02   0.459E+00 -.241E+00 0.177E-01
   0.514E+02 -.387E+02 0.287E+02   -.545E+02 0.388E+02 -.290E+02   0.322E+01 -.138E+00 0.291E+00
   0.212E+02 -.272E+02 0.202E+02   -.217E+02 0.274E+02 -.203E+02   0.462E+00 -.287E+00 0.674E-01
   0.833E+01 -.107E+02 0.186E+02   -.842E+01 0.108E+02 -.186E+02   0.386E-01 -.109E+00 0.426E-01
   0.121E+02 -.148E+02 0.203E+02   -.125E+02 0.148E+02 -.203E+02   0.344E+00 -.595E-01 0.153E-01
   0.549E+01 -.247E+02 0.112E+02   -.554E+01 0.251E+02 -.112E+02   0.927E-01 -.423E+00 -.347E-01
   -.645E+01 0.725E-01 0.268E+01   0.661E+01 -.124E+00 -.267E+01   -.126E+00 0.844E-01 -.169E-01
   0.371E+00 0.953E+01 0.789E+01   -.585E+00 -.966E+01 -.793E+01   0.224E+00 0.149E+00 0.464E-01
   -.484E+00 -.914E+01 0.533E+01   0.705E+00 0.928E+01 -.537E+01   -.224E+00 -.137E+00 0.360E-01
   -.510E+01 0.847E+01 0.662E+01   0.533E+01 -.878E+01 -.667E+01   -.215E+00 0.263E+00 0.335E-01
   -.572E+01 0.249E+02 0.992E+01   0.578E+01 -.253E+02 -.989E+01   -.925E-01 0.432E+00 -.328E-01
   0.298E+02 0.581E+02 0.153E+02   -.319E+02 -.606E+02 -.154E+02   0.215E+01 0.275E+01 0.120E+00
   0.670E+01 0.222E+02 0.114E+02   -.678E+01 -.226E+02 -.115E+02   0.113E+00 0.264E+00 0.576E-01
   -.214E+02 0.272E+02 0.195E+02   0.219E+02 -.274E+02 -.196E+02   -.470E+00 0.291E+00 0.633E-01
   -.519E+02 0.384E+02 0.300E+02   0.551E+02 -.385E+02 -.303E+02   -.322E+01 0.132E+00 0.295E+00
   -.558E+02 0.249E+02 0.297E+02   0.576E+02 -.275E+02 -.299E+02   -.172E+01 0.261E+01 0.286E+00
   -.307E+02 -.574E+02 0.122E+02   0.319E+02 0.604E+02 -.123E+02   -.130E+01 -.317E+01 0.870E-01
   -.169E+02 -.275E+02 0.173E+01   0.170E+02 0.275E+02 -.179E+01   0.999E-03 0.284E-01 0.485E-01
   -.687E+01 -.219E+02 0.864E+01   0.695E+01 0.222E+02 -.870E+01   -.114E+00 -.257E+00 0.612E-01
   -.302E+02 -.579E+02 0.872E+01   0.322E+02 0.605E+02 -.878E+01   -.216E+01 -.274E+01 0.665E-01
   -.595E+01 -.860E+01 0.193E+01   0.601E+01 0.843E+01 -.199E+01   0.127E-01 0.179E+00 0.316E-01
   0.272E+01 -.416E+01 0.161E+02   -.273E+01 0.423E+01 -.161E+02   0.253E-01 -.397E-01 0.371E-01
   -.317E+01 0.424E+01 0.100E+02   0.325E+01 -.426E+01 -.100E+02   -.568E-01 0.979E-02 -.168E-02
   -.445E+01 0.278E+01 0.110E+02   0.440E+01 -.276E+01 -.111E+02   0.548E-01 0.971E-02 0.267E-01
   -.246E+01 0.427E+01 0.179E+02   0.247E+01 -.433E+01 -.180E+02   -.312E-01 0.424E-01 0.474E-01
   -.182E+01 0.447E+01 0.169E+02   0.181E+01 -.454E+01 -.169E+02   -.295E-01 0.628E-01 0.207E-01
   -.123E+02 0.147E+02 0.178E+02   0.127E+02 -.147E+02 -.178E+02   -.345E+00 0.693E-01 0.217E-02
   -.830E+01 0.108E+02 0.151E+02   0.839E+01 -.109E+02 -.151E+02   -.447E-01 0.110E+00 0.358E-01
   -.309E+01 0.863E+01 0.174E+02   0.315E+01 -.870E+01 -.174E+02   -.400E-01 0.978E-01 0.361E-01
   -.444E+01 0.814E+01 0.168E+02   0.450E+01 -.815E+01 -.168E+02   -.335E-01 0.249E-01 0.280E-02
   -.322E+02 0.712E+01 0.204E+02   0.326E+02 -.741E+01 -.204E+02   -.455E+00 0.231E+00 0.189E-01
   -.153E+02 0.694E+01 0.193E+02   0.154E+02 -.732E+01 -.194E+02   -.134E+00 0.293E+00 0.437E-01
   0.405E+01 0.403E+00 0.162E+02   -.414E+01 -.413E+00 -.163E+02   0.170E+00 -.537E-01 0.348E-01
   -.378E+01 -.426E+00 0.149E+02   0.387E+01 0.443E+00 -.149E+02   -.169E+00 0.473E-01 0.140E-01
   -.160E+02 -.194E+02 0.134E+02   0.162E+02 0.197E+02 -.135E+02   -.159E+00 -.224E+00 0.485E-01
   -.180E+02 -.105E+02 0.144E+02   0.184E+02 0.107E+02 -.144E+02   -.353E+00 -.164E+00 -.900E-02
   0.459E+01 -.818E+01 0.167E+02   -.465E+01 0.821E+01 -.168E+02   0.348E-01 -.266E-01 0.199E-01
   0.330E+01 -.879E+01 0.151E+02   -.335E+01 0.888E+01 -.151E+02   0.507E-01 -.910E-01 0.256E-01
   -.253E+01 -.970E+01 0.705E+01   0.240E+01 0.984E+01 -.704E+01   0.587E-01 -.872E-01 -.320E-02
   -.722E+01 -.103E+02 0.115E+02   0.719E+01 0.106E+02 -.115E+02   0.280E-01 -.301E+00 0.500E-01
   0.196E+01 -.431E+01 0.172E+02   -.194E+01 0.438E+01 -.172E+02   0.326E-01 -.631E-01 0.310E-01
   0.252E+02 0.423E+02 0.326E+02   -.522E+01 -.415E+02 -.314E+02   -.190E+02 -.920E+00 -.112E+01
   0.248E+02 0.427E+02 0.274E+02   -.346E+02 -.248E+02 -.262E+02   0.927E+01 -.171E+02 -.108E+01
   -.253E+02 -.432E+02 0.264E+02   0.529E+01 0.424E+02 -.252E+02   0.190E+02 0.925E+00 -.110E+01
   -.257E+02 -.431E+02 0.214E+02   0.356E+02 0.251E+02 -.201E+02   -.927E+01 0.172E+02 -.119E+01
   -.122E+01 -.225E+01 0.128E+02   0.127E+01 0.233E+01 -.145E+02   -.239E-01 -.345E-01 -.510E-01
   0.295E+01 0.332E+01 -.943E+03   -.287E+01 -.318E+01 0.937E+03   -.860E-01 -.138E+00 0.684E+01
   0.216E+00 0.447E+00 -.536E+01   0.318E-12 0.249E-12 0.114E-12   -.822E-01 -.123E+00 0.516E+01

 POSITION                                       TOTAL-FORCE (eV/Angst)
      2.64178     -0.52816      9.97098        -0.004779      0.029044      0.008139
      0.49788      0.68736      9.92704         0.015925     -0.041706      0.026479
      1.21161     -0.54089      9.93687        -0.026509      0.003524      0.015975
      3.35877      0.70883      9.99143        -0.014318     -0.044817      0.015090
      2.65652      1.96546      9.99142        -0.080770     -0.025401      0.000428
      0.48110      3.14721      9.94277         0.005532      0.065584      0.011178
      1.21958      1.92863      9.95003         0.047729     -0.039306      0.024279
      3.37505      3.22598     10.03893        -0.024250     -0.023434      0.012942
      2.61113      4.46380     10.03397         0.145908      0.363093      0.038706
      0.39637      5.59911      9.95707        -0.049284     -0.010023     -0.002596
      1.17217      4.39709      9.96911        -0.058943     -0.063912      0.018069
      2.46394      6.85706     10.02036         0.021460     -0.156396      0.058993
      0.32977      8.06974      9.93994         0.027048      0.064827      0.011055
      1.06218      6.84828      9.96470         0.124125      0.033772      0.000566
      3.16185      8.09479     10.03611         0.212502     -0.001526      0.048267
      2.44809      9.30917      9.98346        -0.025272     -0.053017      0.000111
      0.30598     10.52298      9.92674        -0.048030      0.009232      0.017211
      1.02581      9.30036      9.94268        -0.023904     -0.040242      0.007837
      3.17225     10.52987      9.99788         0.045737     -0.049706     -0.006430
      6.74450     11.67154     10.02411         0.020247      0.036776     -0.007747
      4.78572      0.67108     10.01150         0.015144      0.025238     -0.000506
      5.31733     11.70881     10.02401        -0.012391     -0.016527     -0.008096
      7.64542      0.61325      9.99869         0.006131     -0.037839     -0.011723
      6.93088      1.85006     10.00619        -0.045001      0.065065     -0.007571
      4.82241      3.18689     10.05925         0.225345      0.335386      0.037191
      5.50463      1.90729     10.02137         0.047606     -0.085392      0.008046
      7.65512      3.07097      9.99034         0.011601      0.055373      0.005460
      6.94098      4.28571     10.03558        -0.214017     -0.007875      0.063036
      7.63883      5.52330     10.03423        -0.022728      0.171145      0.055992
      7.49189      7.91615     10.06906        -0.156488     -0.358132      0.017667
      6.72799      9.15431     10.07928         0.027243      0.026210     -0.012703
      4.59825     10.47278     10.03311        -0.045137      0.082384      0.000844
      5.28019      9.19340     10.08557        -0.232294     -0.338934      0.005349
      7.44708     10.41490     10.03503         0.073107      0.021848     -0.021231
     11.04107     11.72046      9.92672         0.012546      0.016075      0.025822
      9.07575      0.62620      9.96589         0.014928     -0.019658      0.002003
      9.60539     11.69316      9.95775         0.000664      0.027228      0.003669
     11.95076      0.65978      9.91756        -0.031117     -0.012466      0.033426
     11.22575      1.88134      9.92365        -0.042605     -0.012036      0.013660
      9.07729      3.07958      9.95538         0.029950      0.063160      0.001982
      9.79735      1.85715      9.94274         0.039461     -0.005120      0.001056
     11.93576      3.12004      9.92762         0.012545      0.022738      0.008256
     11.19201      4.33435      9.93594         0.023993      0.005980     -0.001483
      9.04064      5.53238      9.97986        -0.120979     -0.045263      0.003753
      9.77291      4.31092      9.94893        -0.025667     -0.080753      0.006539
     11.86823      5.57915      9.94296         0.084400     -0.078253      0.003905
     11.12282      6.80158      9.94983        -0.083294      0.067861     -0.003659
      8.93058      7.98291     10.00182         0.067108      0.074620      0.003222
      9.70650      6.78144      9.97651         0.046172      0.002875     -0.002877
     11.79905      8.04613      9.93882        -0.023050     -0.006325      0.005324
     11.05509      9.25996      9.94142         0.000701     -0.005904      0.007017
      8.88417     10.45163      9.99069        -0.060966      0.042001      0.006173
      9.62183      9.23256      9.97519        -0.005677     -0.046802      0.000958
     11.76550     10.49885      9.92494         0.050523      0.001300      0.019546
      3.22631      5.70458     10.09573        -0.662796     -0.205409     -0.017300
      5.56602      4.35567     10.11385         0.238544     -0.722625      0.000170
      6.87644      6.67548     10.11718         0.660345      0.186666     -0.020205
      4.53559      8.02486     10.12833        -0.219122      0.709946     -0.010380
      5.05017      6.18866     10.32146         0.008325      0.027617     -1.027447
      5.03093      6.15972     12.48461        -0.003209     -0.001767      0.506560
    total drift:                                0.129422      0.316756      0.011069

  FREE ENERGIE OF THE ION-ELECTRON SYSTEM (eV)
  free  energy   TOTEN  =      -632.14315123 eV

  energy  without entropy=     -632.14315123  energy(sigma->0) =     -632.14315123

 stress matrix after NEB project (eV)
    -40.39444     -3.58446     -0.00681
     -3.58643    -39.59607     -0.00885
     -0.00760     -0.01027      0.52987
  FORCES: max atom, RMS     1.027851    0.270627
  FORCE total and by dimension    2.096270    1.027447
  Stress total and by dimension   56.793938   40.394438
 writing wavefunctions
 vacuum level on the upper side and lower side of the slab         1.258         1.708

 total charge

[...]

 magnetization (x)

# of ion       s       p       d       tot
    1        0.000   0.000   0.000   0.001
    2       -0.000  -0.000   0.000  -0.000
    3        0.000   0.000   0.000   0.000
    4        0.000   0.000   0.000   0.001
    5       -0.000  -0.001   0.000  -0.001
    6       -0.000  -0.001   0.000  -0.001
    7        0.000   0.001   0.000   0.002
    8        0.000   0.006   0.000   0.006
    9       -0.001  -0.006   0.000  -0.006
   10       -0.000  -0.002   0.000  -0.002
   11        0.000   0.002   0.000   0.002
   12       -0.000  -0.002   0.000  -0.002
   13        0.000   0.001   0.000   0.001
   14        0.000   0.001   0.000   0.001
   15       -0.000  -0.003   0.000  -0.003
   16        0.000   0.001   0.000   0.001
   17        0.000   0.000   0.000   0.000
   18        0.000   0.000   0.000   0.000
   19       -0.000  -0.003   0.000  -0.003
   20        0.000   0.000   0.000   0.000
   21       -0.000  -0.000   0.000  -0.000
   22       -0.000  -0.000   0.000  -0.000
   23        0.000   0.001   0.000   0.001
   24       -0.000  -0.003   0.000  -0.003
   25       -0.001  -0.006   0.000  -0.006
   26        0.000   0.002   0.000   0.002
   27        0.000   0.001   0.000   0.001
   28       -0.000  -0.003   0.000  -0.004
   29       -0.000  -0.001   0.000  -0.002
   30       -0.001  -0.006   0.000  -0.006
   31        0.000   0.005   0.000   0.006
   32        0.000   0.002   0.000   0.002
   33       -0.001  -0.006   0.000  -0.006
   34       -0.000  -0.001   0.000  -0.001
   35        0.000   0.000   0.000   0.000
   36       -0.000   0.000   0.000   0.000
   37       -0.000  -0.000   0.000  -0.000
   38        0.000   0.000   0.000   0.000
   39       -0.000   0.000   0.000   0.000
   40       -0.000   0.000   0.000   0.000
   41        0.000   0.000   0.000   0.000
   42        0.000   0.001   0.000   0.001
   43       -0.000  -0.001   0.000  -0.001
   44        0.000   0.001   0.000   0.001
   45        0.000   0.001   0.000   0.001
   46        0.000   0.001   0.000   0.001
   47        0.000   0.001   0.000   0.001
   48        0.000   0.002   0.000   0.002
   49       -0.000  -0.002   0.000  -0.002
   50       -0.000  -0.001   0.000  -0.001
   51        0.000   0.000   0.000   0.000
   52        0.000   0.001   0.000   0.001
   53       -0.000  -0.001   0.000  -0.001
   54        0.000   0.000   0.000   0.000
   55        0.002   0.016   0.000   0.018
   56        0.002   0.014   0.000   0.016
   57        0.002   0.015   0.000   0.017
   58        0.002   0.013   0.000   0.015
   59       -0.018   0.007   0.316   0.305
   60        0.187  -0.018   3.087   3.256
tot          0.174   0.032   3.403   3.610