 vasp.5.4.4.18Apr17-6-g9f103f2a35 (build Feb 25 2019 10:51:38) complex

 executed on             LinuxIFC date 2021.06.17  13:05:40

 INCAR:
 POTCAR:    PAW_PBE C 08Apr2002
 POTCAR:    PAW_PBE N 08Apr2002
 POTCAR:    PAW_PBE Fe 06Sep2000
 POTCAR:    PAW_PBE Mn 06Sep2000

 POTCAR:    PAW_PBE C 08Apr2002
   VRHFIN =C: s2p2

   TITEL  = PAW_PBE C 08Apr2002
   POMASS =   12.011; ZVAL   =    4.000    mass and valenz
   ENMAX  =  400.000; ENMIN  =  300.000 eV

 POTCAR:    PAW_PBE N 08Apr2002
   VRHFIN =N: s2p3

   TITEL  = PAW_PBE N 08Apr2002
   POMASS =   14.001; ZVAL   =    5.000    mass and valenz
   ENMAX  =  400.000; ENMIN  =  300.000 eV

 POTCAR:    PAW_PBE Fe 06Sep2000
   VRHFIN =Fe:  d7 s1

   TITEL  = PAW_PBE Fe 06Sep2000
   POMASS =   55.847; ZVAL   =    8.000    mass and valenz
   ENMAX  =  267.882; ENMIN  =  200.911 eV

 POTCAR:    PAW_PBE Mn 06Sep2000
   VRHFIN =Mn: d6 s1

   TITEL  = PAW_PBE Mn 06Sep2000
   POMASS =   54.938; ZVAL   =    7.000    mass and valenz
   ENMAX  =  269.864; ENMIN  =  202.398 eV

  PAW_PBE C 08Apr2002                   :
  PAW_PBE N 08Apr2002                   :
  PAW_PBE Fe 06Sep2000                  :
  PAW_PBE Mn 06Sep2000                  :

 POSCAR:  C  N Fe Mn
  positions in cartesian coordinates
 exchange correlation table for  LEXCH =        8
   RHO(1)=    0.500       N(1)  =     2000
   RHO(2)=  100.500       N(2)  =     4000

 VTST: version 3.2, (02/03/18)

 CHAIN: initializing optimizer

 OPT: Using VASP Conjugate-Gradient optimizer
 CHAIN: Read ICHAIN            0

 POSCAR:  C  N Fe Mn
  positions in cartesian coordinates

 ion  position               nearest neighbor table
   1  0.222  0.001  0.501-   3 1.42   4 1.43  19 1.43
   2  0.055  0.102  0.501-   3 1.43   7 1.43  33 1.43
   3  0.110  0.001  0.500-  17 1.42   1 1.42   2 1.43
   4  0.277  0.101  0.500-  21 1.42   1 1.43   5 1.43
   5  0.224  0.203  0.500-   4 1.43   7 1.44   8 1.44
   6  0.056  0.302  0.500-   7 1.42  11 1.43  37 1.44
   7  0.112  0.202  0.501-   6 1.42   2 1.43   5 1.44
   8  0.283  0.303  0.498-  50 1.38   5 1.44   9 1.45
   9  0.227  0.405  0.499-  49 1.36  11 1.45   8 1.45
  10  0.056  0.501  0.500-  11 1.42  14 1.42  40 1.44
  11  0.113  0.402  0.500-  10 1.42   6 1.43   9 1.45
  12  0.226  0.596  0.500-  49 1.36  14 1.44  15 1.46
  13  0.055  0.700  0.500-  18 1.42  14 1.43  44 1.43
  14  0.113  0.600  0.500-  10 1.42  13 1.43  12 1.44
  15  0.283  0.699  0.502-  52 1.37  16 1.44  12 1.46
  16  0.224  0.799  0.501-  19 1.43  18 1.43  15 1.44
  17  0.055  0.900  0.500-   3 1.42  48 1.43  18 1.43
  18  0.111  0.799  0.500-  13 1.42  17 1.43  16 1.43
  19  0.277  0.900  0.501-  27 1.42  16 1.43   1 1.43
  20  0.555  0.000  0.501-  22 1.41  23 1.42  29 1.42
  21  0.389  0.101  0.500-   4 1.42  25 1.42  22 1.42
  22  0.444  0.000  0.501-  20 1.41  21 1.42  27 1.42
  23  0.610  0.101  0.500-  31 1.42  24 1.42  20 1.42
  24  0.556  0.202  0.499-  51 1.38  23 1.42  25 1.44
  25  0.443  0.202  0.499-  50 1.38  21 1.42  24 1.44
  26  0.556  0.798  0.503-  53 1.37  29 1.43  28 1.45
  27  0.389  0.900  0.502-  19 1.42  22 1.42  28 1.43
  28  0.442  0.798  0.503-  52 1.37  27 1.43  26 1.45
  29  0.610  0.900  0.502-  46 1.42  20 1.42  26 1.43
  30  0.888  0.001  0.500-  48 1.42  32 1.42  33 1.43
  31  0.721  0.101  0.500-  23 1.42  32 1.43  36 1.43
  32  0.777  0.001  0.501-  30 1.42  31 1.43  46 1.43
  33  0.943  0.102  0.501-  30 1.43  34 1.43   2 1.43
  34  0.887  0.202  0.501-  37 1.42  33 1.43  36 1.44
  35  0.715  0.303  0.499-  51 1.38  36 1.44  39 1.45
  36  0.774  0.203  0.500-  31 1.43  34 1.44  35 1.44
  37  0.943  0.302  0.500-  34 1.42  38 1.43   6 1.44
  38  0.885  0.402  0.500-  40 1.42  37 1.43  39 1.45
  39  0.772  0.405  0.499-  54 1.36  38 1.45  35 1.45
  40  0.943  0.501  0.500-  38 1.42  41 1.42  10 1.44
  41  0.886  0.600  0.500-  40 1.42  44 1.43  43 1.44
  42  0.716  0.699  0.502-  53 1.37  47 1.44  43 1.46
  43  0.772  0.596  0.500-  54 1.36  41 1.44  42 1.46
  44  0.943  0.700  0.500-  45 1.42  41 1.43  13 1.43
  45  0.887  0.799  0.500-  44 1.42  48 1.43  47 1.43
  46  0.721  0.900  0.501-  29 1.42  47 1.43  32 1.43
  47  0.775  0.799  0.501-  46 1.43  45 1.43  42 1.44
  48  0.943  0.900  0.500-  30 1.42  17 1.43  45 1.43
  49  0.280  0.501  0.499-   9 1.36  12 1.36
  50  0.392  0.301  0.496-  25 1.38   8 1.38  55 1.94
  51  0.607  0.301  0.496-  24 1.38  35 1.38  55 1.94
  52  0.391  0.700  0.504-  28 1.37  15 1.37  56 2.13
  53  0.608  0.700  0.504-  26 1.37  42 1.37  56 2.13
  54  0.718  0.501  0.499-  39 1.36  43 1.36
  55  0.499  0.405  0.472-  51 1.94  50 1.94  56 2.20
  56  0.499  0.570  0.514-  53 2.13  52 2.13  55 2.20

  LATTYP: Found a triclinic cell.
 ALAT       =    26.9083162709
 B/A-ratio  =     0.4735524836
 C/A-ratio  =     0.4576503366
 COS(alpha) =     0.0000157080
 COS(beta)  =     0.4580937438
 COS(gamma) =     0.4733653249

  Lattice vectors:

 A1 = ( -12.7374638738, -12.3263312631,  20.2453959257)
 A2 = ( -12.7425000000,   0.0000000000,   0.0000000000)
 A3 = (  -0.0001934373, -12.3145999985,   0.0000000000)

Analysis of symmetry for initial positions (statically):
 Subroutine PRICEL returns:
 Original cell was already a primitive cell.

 Routine SETGRP: Setting up the symmetry group for a
 triclinic supercell.

 Subroutine GETGRP returns: Found  1 space group operations
 (whereof  1 operations were pure point group operations)
 out of a pool of  2 trial point group operations.

The static configuration has the point symmetry C_1 .

Analysis of symmetry for dynamics (positions and initial velocities):
 Subroutine PRICEL returns:
 Original cell was already a primitive cell.

[...]

The dynamic configuration has the point symmetry C_1 .

Analysis of structural, dynamic, and magnetic symmetry:
 Subroutine PRICEL returns:
 Original cell was already a primitive cell.

 Routine SETGRP: Setting up the symmetry group for a
 triclinic supercell.

 Subroutine GETGRP returns: Found  1 space group operations
 (whereof  1 operations were pure point group operations)
 out of a pool of  2 trial point group operations.

The magnetic configuration has the point symmetry C_1 .

 Subroutine INISYM returns: Found  1 space group operations
 (whereof  1 operations are pure point group operations),
 and found     1 'primitive' translations

 KPOINTS: KPOINTS created by Atomic Simulation Env

Automatic generation of k-mesh.
Space group operators:
 irot       det(A)        alpha          n_x          n_y          n_z        tau_x        tau_y        tau_z
    1     1.000000     0.000000     1.000000     0.000000     0.000000     0.000000     0.000000     0.000000

 Subroutine IBZKPT returns following result:

 Found      2 irreducible k-points:

 Following reciprocal coordinates:
            Coordinates               Weight
  0.250000  0.250000  0.000000      2.000000
 -0.250000  0.250000  0.000000      2.000000

 Following cartesian coordinates:
            Coordinates               Weight
  0.019619  0.020301  0.000007      2.000000
 -0.019619  0.020301  0.000017      2.000000

 Subroutine IBZKPT_HF returns following result:

 Found      4 k-points in 1st BZ
 the following      4 k-points will be used (e.g. in the exchange kernel)
 Following reciprocal coordinates:   # in IRBZ
  0.250000  0.250000  0.000000    0.25000000   1 t-inv F
 -0.250000  0.250000  0.000000    0.25000000   2 t-inv F
 -0.250000 -0.250000  0.000000    0.25000000   1 t-inv T
  0.250000 -0.250000 -0.000000    0.25000000   2 t-inv T

 SYSTEM =  unknown system
 POSCAR =   C  N Fe Mn

 Startparameter for this run:
   NWRITE =      2    write-flag & timer
   PREC   = accura    normal or accurate (medium, high low for compatibility)
   ISTART =      1    job   : 0-new  1-cont  2-samecut
   ICHARG =      0    charge: 1-file 2-atom 10-const
   ISPIN  =      2    spin polarized calculation?
   LNONCOLLINEAR =      F non collinear calculations
   LSORBIT =      F    spin-orbit coupling
   INIWAV =      1    electr: 0-lowe 1-rand  2-diag
   LASPH  =      T    aspherical Exc in radial PAW
   METAGGA=      F    non-selfconsistent MetaGGA calc.

 Electronic Relaxation 1
   ENCUT  =  500.0 eV  36.75 Ry    6.06 a.u.  23.23 22.45 36.91*2*pi/ulx,y,z
   ENINI  =  500.0     initial cutoff
   ENAUG  =  644.9 eV  augmentation charge cutoff
   NELM   =    250;   NELMIN=  2; NELMDL=  0     # of ELM steps
   EDIFF  = 0.1E-03   stopping-criterion for ELM
   LREAL  =      F    real-space projection
   NLSPLINE    = F    spline interpolate recip. space projectors
   LCOMPAT=      F    compatible to vasp.4.4
   GGA_COMPAT  = T    GGA compatible to vasp.4.4-vasp.4.6
   LMAXPAW     = -100 max onsite density
   LMAXMIX     =    2 max onsite mixed and CHGCAR
   VOSKOWN=      0    Vosko Wilk Nusair interpolation
   ROPT   =    0.00000   0.00000   0.00000   0.00000
 Ionic relaxation
   EDIFFG = -.3E-01   stopping-criterion for IOM
   NSW    =      0    number of steps for IOM
   NBLOCK =      1;   KBLOCK =      1    inner block; outer block
   IBRION =     -1    ionic relax: 0-MD 1-quasi-New 2-CG
   NFREE  =      1    steps in history (QN), initial steepest desc. (CG)
   ISIF   =      2    stress and relaxation
   IWAVPR =     10    prediction:  0-non 1-charg 2-wave 3-comb
   ISYM   =      3    0-nonsym 1-usesym 2-fastsym
   LCORR  =      T    Harris-Foulkes like correction to forces

   POTIM  = 0.5000    time-step for ionic-motion
   TEIN   =    0.0    initial temperature
   TEBEG  =    0.0;   TEEND  =   0.0 temperature during run
   SMASS  =  -3.00    Nose mass-parameter (am)
   estimated Nose-frequenzy (Omega)   =  0.10E-29 period in steps =****** mass=  -0.371E-26a.u.
   SCALEE = 1.0000    scale energy and forces
   NPACO  =    256;   APACO  = 16.0  distance and # of slots for P.C.
   PSTRESS=    0.0 pullay stress

  Mass of Ions in am
   POMASS =  12.01 14.00 55.85 54.94
  Ionic Valenz
   ZVAL   =   4.00  5.00  8.00  7.00
  Atomic Wigner-Seitz radii
  virtual crystal weights
   VCA    =   1.00  1.00  1.00  1.00
   NELECT =     237.0000    total number of electrons
   NUPDOWN=      -1.0000    fix difference up-down

 DOS related values:
   EMIN   =  10.00;   EMAX   =-10.00  energy-range for DOS
   EFERMI =   0.00
   ISMEAR =     0;   SIGMA  =   0.10  broadening in eV -4-tet -1-fermi 0-gaus

 Electronic relaxation 2 (details)
   IALGO  =     53    algorithm
   LDIAG  =      T    sub-space diagonalisation (order eigenvalues)
   LSUBROT=      F    optimize rotation matrix (better conditioning)
   TURBO    =      0    0=normal 1=particle mesh
   IRESTART =      0    0=no restart 2=restart with 2 vectors
   NREBOOT  =      0    no. of reboots
   NMIN     =      0    reboot dimension
   EREF     =   0.00    reference energy to select bands
   IMIX   =      4    mixing-type and parameters
     AMIX     =   0.40;   BMIX     =  1.00
     AMIX_MAG =   1.60;   BMIX_MAG =  1.00
     AMIN     =   0.10
     WC   =   100.;   INIMIX=   1;  MIXPRE=   1;  MAXMIX= -45

 Intra band minimization:
   WEIMIN = 0.0000     energy-eigenvalue tresh-hold
   EBREAK =  0.17E-06  absolut break condition
   DEPER  =   0.30     relativ break condition

   TIME   =   0.20     timestep for ELM

[...]
   21        0.869   1.785   0.000   2.654
   22        0.866   1.795   0.000   2.662
   23        0.869   1.785   0.000   2.654
   24        0.860   1.748   0.000   2.608
   25        0.860   1.748   0.000   2.608
   26        0.860   1.741   0.000   2.601
   27        0.868   1.783   0.000   2.652
   28        0.861   1.741   0.000   2.601
   29        0.868   1.783   0.000   2.652
   30        0.867   1.780   0.000   2.646
   31        0.870   1.771   0.000   2.641
   32        0.864   1.784   0.000   2.649
   33        0.865   1.767   0.000   2.633
   34        0.865   1.768   0.000   2.634
   35        0.852   1.722   0.000   2.574
   36        0.863   1.764   0.000   2.627
   37        0.864   1.774   0.000   2.638
   38        0.865   1.763   0.000   2.629
   39        0.854   1.728   0.000   2.582
   40        0.867   1.766   0.000   2.633
   41        0.865   1.769   0.000   2.634
   42        0.855   1.724   0.000   2.580
   43        0.855   1.731   0.000   2.585
   44        0.865   1.776   0.000   2.640
   45        0.865   1.773   0.000   2.639
   46        0.871   1.766   0.000   2.637
   47        0.865   1.767   0.000   2.632
   48        0.866   1.770   0.000   2.636
   49        1.242   2.627   0.000   3.870
   50        1.226   2.671   0.000   3.897
   51        1.226   2.671   0.000   3.897
   52        1.232   2.669   0.000   3.901
   53        1.232   2.669   0.000   3.901
   54        1.242   2.627   0.000   3.870
   55        0.429   0.370   6.334   7.133
   56        0.272   0.233   4.965   5.469
tot         49.557 101.171  11.299 162.027

 magnetization (x)

[...]

  FORCE on cell =-STRESS in cart. coord.  units (eV):
  Direction    XX          YY          ZZ          XY          YZ          ZX
  Alpha Z    95.51337    95.51337    95.51337
  Ewald   46186.30676 46341.07298-54382.24810     0.04993  -120.91902     0.03838
  Hartree 45739.30862 45762.91416-45116.48131     0.02732   -69.54686     0.02750
  E(xc)    -694.27258  -695.62621  -708.32401     0.00029    -0.64841     0.00016
  Local  -94471.42248-94639.63198 96483.74361    -0.07469   183.09037    -0.06272
  n-local  -178.51497  -171.40711  -169.12409     0.00356     1.24485    -0.00073
  augment    45.81100    48.99822    48.49023    -0.00010     1.58050    -0.00146
  Kinetic  3559.67387  3546.03517  4049.94390    -0.03646     7.45631    -0.00227
  Fock     -324.25709  -327.87989  -301.33026    -0.00071    -0.37949     0.00168
  Total     -41.85349   -40.01128     0.18334    -0.03086     1.87824     0.00054
  in kB     -21.10771   -20.17864     0.09246    -0.01556     0.94724     0.00027

 VOLUME and BASIS-vectors are now :
  energy-cutoff  :      500.00
  volume of cell :     3176.88
      direct lattice vectors                 reciprocal lattice vectors
    12.742500000  0.000000000  0.000000000     0.078477536 -0.000001233 -0.000020272
     0.000193437 12.314599998  0.000000000     0.000000000  0.081204424  0.000047054
     0.005229563 -0.011731265 20.245395926     0.000000000  0.000000000  0.049393946

  length of vectors
    12.742500000 12.314600000 20.245400000     0.078477538  0.081204438  0.049393946

 FORCES acting on ions:
    Electron-Ion                     Ewald-Force                    Non-Local-Force
   0.200E+01 0.161E+01 -.206E+01   -.240E+01 -.147E+01 0.206E+01   0.493E+00 -.594E-01 0.111E-02
   0.688E+00 -.208E+01 -.349E+01   -.649E+00 0.199E+01 0.349E+01   0.494E-02 0.392E-01 -.563E-02
   0.257E+01 0.313E+00 -.772E+00   -.282E+01 -.332E+00 0.773E+00   0.131E+00 0.329E-02 0.566E-02
   0.894E+01 0.284E+01 -.411E+01   -.940E+01 -.316E+01 0.408E+01   0.352E+00 0.198E+00 0.231E-01
   0.906E+01 -.565E+01 -.541E+01   -.938E+01 0.586E+01 0.538E+01   0.384E+00 -.854E-01 0.131E-01
   0.286E+01 -.303E+01 -.317E+01   -.293E+01 0.284E+01 0.316E+01   0.203E+00 0.146E+00 0.140E-02
   -.820E+00 -.607E-01 -.536E+01   0.371E+00 0.188E+00 0.539E+01   0.295E+00 -.527E-01 -.286E-01
   0.252E+02 -.211E+02 -.242E+01   -.290E+02 0.216E+02 0.248E+01   0.344E+01 -.469E+00 -.759E-01
   -.256E+01 0.183E+02 -.403E+00   0.106E+01 -.206E+02 0.480E+00   0.140E+01 0.201E+01 -.687E-01
   0.645E+01 -.860E+00 0.862E+00   -.657E+01 0.835E+00 -.859E+00   -.115E+00 -.241E-01 -.252E-02
   -.474E+01 0.373E+01 -.113E+01   0.480E+01 -.417E+01 0.115E+01   0.138E-01 0.394E+00 -.155E-01
   -.728E+01 -.220E+02 -.196E+00   0.561E+01 0.242E+02 0.207E+00   0.151E+01 -.201E+01 -.236E-01
   0.162E+01 0.287E+01 0.252E+01   -.170E+01 -.266E+01 -.251E+01   0.187E+00 -.117E+00 0.205E-02
   -.454E+01 -.457E+01 0.181E+01   0.464E+01 0.502E+01 -.185E+01   0.766E-01 -.384E+00 0.343E-01
   0.181E+02 0.220E+02 -.327E+01   -.217E+02 -.224E+02 0.313E+01   0.338E+01 0.436E+00 0.154E+00
   0.522E+01 0.718E+01 0.251E+00   -.569E+01 -.732E+01 -.247E+00   0.516E+00 0.137E+00 0.804E-02
   0.478E-01 0.293E+01 0.192E+01   -.233E-01 -.284E+01 -.192E+01   -.805E-03 -.285E-01 0.589E-02
   -.153E+01 0.684E+00 0.294E+01   0.990E+00 -.811E+00 -.297E+01   0.385E+00 0.517E-01 0.271E-01
   0.619E+01 0.178E+00 -.219E+01   -.658E+01 0.973E-01 0.221E+01   0.328E+00 -.293E+00 -.147E-01
   -.444E+01 0.413E+01 -.540E+01   0.400E+01 -.407E+01 0.539E+01   0.316E+00 -.247E-01 0.748E-02
   0.163E+01 0.764E+01 -.630E+01   -.146E+01 -.820E+01 0.630E+01   0.188E-01 0.618E+00 -.204E-01
   0.444E+01 0.413E+01 -.540E+01   -.400E+01 -.407E+01 0.540E+01   -.315E+00 -.252E-01 0.677E-02
   -.162E+01 0.765E+01 -.637E+01   0.146E+01 -.821E+01 0.637E+01   -.194E-01 0.620E+00 -.212E-01
   0.578E+01 0.242E+02 -.821E+01   -.714E+01 -.274E+02 0.865E+01   0.124E+01 0.295E+01 -.417E+00
   -.577E+01 0.242E+02 -.815E+01   0.712E+01 -.274E+02 0.859E+01   -.125E+01 0.295E+01 -.418E+00
   0.163E+02 -.880E+01 -.867E+01   -.174E+02 0.117E+02 0.857E+01   0.133E+01 -.282E+01 0.914E-01
   -.180E+01 0.370E+00 -.404E+01   0.202E+01 0.168E+00 0.402E+01   -.107E+00 -.616E+00 0.314E-01
   -.163E+02 -.880E+01 -.868E+01   0.174E+02 0.117E+02 0.859E+01   -.133E+01 -.282E+01 0.907E-01
   0.180E+01 0.376E+00 -.404E+01   -.202E+01 0.163E+00 0.402E+01   0.105E+00 -.616E+00 0.320E-01
   -.258E+01 0.286E+00 -.805E+00   0.283E+01 -.305E+00 0.806E+00   -.129E+00 0.685E-02 0.563E-02
   -.894E+01 0.282E+01 -.418E+01   0.941E+01 -.315E+01 0.414E+01   -.353E+00 0.197E+00 0.231E-01
   -.199E+01 0.162E+01 -.210E+01   0.239E+01 -.148E+01 0.210E+01   -.494E+00 -.595E-01 0.184E-02
   -.685E+00 -.205E+01 -.349E+01   0.645E+00 0.196E+01 0.349E+01   -.345E-02 0.418E-01 -.523E-02
   0.808E+00 -.758E-01 -.538E+01   -.359E+00 0.204E+00 0.540E+01   -.298E+00 -.525E-01 -.283E-01
   -.252E+02 -.210E+02 -.253E+01   0.290E+02 0.216E+02 0.259E+01   -.344E+01 -.467E+00 -.757E-01
   -.906E+01 -.564E+01 -.549E+01   0.939E+01 0.585E+01 0.546E+01   -.387E+00 -.856E-01 0.126E-01
   -.286E+01 -.303E+01 -.316E+01   0.294E+01 0.284E+01 0.315E+01   -.203E+00 0.144E+00 0.182E-02
   0.473E+01 0.372E+01 -.111E+01   -.479E+01 -.416E+01 0.112E+01   -.120E-01 0.393E+00 -.155E-01
   0.255E+01 0.183E+02 -.406E+00   -.105E+01 -.206E+02 0.484E+00   -.140E+01 0.201E+01 -.687E-01
   -.646E+01 -.851E+00 0.889E+00   0.658E+01 0.826E+00 -.886E+00   0.113E+00 -.243E-01 -.191E-02
   0.454E+01 -.457E+01 0.182E+01   -.464E+01 0.503E+01 -.186E+01   -.773E-01 -.384E+00 0.344E-01
   -.181E+02 0.220E+02 -.328E+01   0.217E+02 -.224E+02 0.314E+01   -.338E+01 0.438E+00 0.154E+00
   0.728E+01 -.221E+02 -.169E+00   -.561E+01 0.242E+02 0.180E+00   -.151E+01 -.201E+01 -.237E-01
   -.163E+01 0.289E+01 0.248E+01   0.170E+01 -.267E+01 -.247E+01   -.184E+00 -.118E+00 0.137E-02
   0.154E+01 0.662E+00 0.287E+01   -.998E+00 -.788E+00 -.289E+01   -.384E+00 0.504E-01 0.265E-01
   -.618E+01 0.174E+00 -.225E+01   0.657E+01 0.993E-01 0.227E+01   -.329E+00 -.294E+00 -.155E-01
   -.521E+01 0.720E+01 0.182E+00   0.568E+01 -.735E+01 -.179E+00   -.516E+00 0.139E+00 0.767E-02
   -.619E-01 0.296E+01 0.187E+01   0.385E-01 -.287E+01 -.187E+01   -.138E-02 -.274E-01 0.517E-02
   -.130E+03 -.540E+01 -.603E+00   0.158E+03 0.547E+01 0.830E+00   -.262E+02 -.483E-02 -.207E+00
   0.371E+01 -.758E+02 -.580E+01   0.542E+01 0.931E+02 0.644E+01   -.873E+01 -.163E+02 -.575E+00
   -.369E+01 -.758E+02 -.606E+01   -.545E+01 0.931E+02 0.671E+01   0.873E+01 -.163E+02 -.585E+00
   -.344E+02 0.959E+02 -.183E+02   0.452E+02 -.115E+03 0.188E+02   -.102E+02 0.185E+02 -.482E+00
   0.344E+02 0.959E+02 -.183E+02   -.452E+02 -.115E+03 0.188E+02   0.102E+02 0.185E+02 -.481E+00
   0.130E+03 -.542E+01 -.534E+00   -.158E+03 0.548E+01 0.759E+00   0.262E+02 -.515E-02 -.204E+00
   0.140E-01 -.145E+03 0.336E+03   -.160E-01 0.138E+03 -.330E+03   0.157E-02 0.416E+01 -.721E+01
   0.253E-01 0.465E+02 -.167E+03   -.251E-01 -.422E+02 0.164E+03   -.129E-02 -.212E+01 0.402E+01
   0.663E-04 -.744E+01 0.671E+01   0.284E-13 0.853E-13 -.284E-13   -.105E-03 0.646E+01 -.627E+01

 POSITION                                       TOTAL-FORCE (eV/Angst)
      2.82923      0.00379     10.13439         0.111556      0.081231      0.003523
      0.70767      1.24809     10.13472         0.044553     -0.050103     -0.004400
      1.40478      0.00454     10.12941        -0.110473     -0.016329      0.007240
      3.53645      1.24203     10.13016        -0.086199     -0.115305     -0.012939
      2.85911      2.49768     10.12422         0.079689      0.114773     -0.019559
      0.71142      3.71428     10.12726         0.141943     -0.042398     -0.009369
      1.42371      2.48637     10.13387        -0.143386      0.076924     -0.008498
      3.61093      3.72299     10.09211        -0.163754      0.044519     -0.016795
      2.89133      4.98736     10.10414        -0.013642     -0.218346      0.006364
      0.71417      6.15960     10.11417        -0.231240     -0.050304      0.000951
      1.44131      4.93934     10.11653         0.064501     -0.023916     -0.001367
      2.88330      7.33833     10.12438        -0.074043      0.006794     -0.013709
      0.70976      8.60856     10.11494         0.129491      0.092563      0.012601
      1.43925      7.38365     10.11527         0.173754      0.047465     -0.005098
      3.60534      8.60479     10.15349         0.026619      0.033547      0.027022
      2.85145      9.82770     10.13584         0.077247      0.003281      0.012709
      0.70679     11.07809     10.12110         0.022578      0.061130      0.007458
      1.41954      9.83789     10.11950        -0.140163     -0.076651      0.008131
      3.53629     11.07876     10.14280        -0.040054     -0.036949      0.006470
      7.06910     -0.00180     10.14606        -0.122652      0.029372      0.001359
      4.95583      1.23621     10.12857         0.180716      0.094213     -0.022697
      5.65791     -0.00176     10.14600         0.124784      0.030153      0.001016
      7.77135      1.23610     10.12886        -0.181334      0.096587     -0.023247
      7.08264      2.48035     10.09353        -0.045300     -0.075577     -0.002542
      5.64469      2.48037     10.09327         0.040199     -0.074755     -0.002307
      7.08778      9.82092     10.18308         0.268054     -0.061245     -0.000160
      4.95686     11.07342     10.15608         0.102094     -0.112330      0.014254
      5.63939      9.82092     10.18308        -0.265961     -0.057514     -0.000848
      7.77050     11.07333     10.15615        -0.104778     -0.110226      0.014846
     11.32221      0.00437     10.12959         0.113479     -0.012052      0.007338
      9.19072      1.24193     10.13051         0.086533     -0.115892     -0.012639
      9.89782      0.00365     10.13465        -0.112509      0.082061      0.004126
     12.01939      1.24798     10.13479        -0.043315     -0.048548     -0.004072
     11.30355      2.48631     10.13401         0.139881      0.077553     -0.008324
      9.11625      3.72283     10.09257         0.166149      0.046768     -0.017636
      9.86816      2.49760     10.12460        -0.082805      0.113725     -0.020182
     12.01580      3.71429     10.12727        -0.141866     -0.044748     -0.008911
     11.28585      4.93930     10.11652        -0.062705     -0.025056     -0.001053
      9.83582      4.98716     10.10423         0.016302     -0.215109      0.006711
     12.01303      6.15959     10.11413         0.230154     -0.050873      0.001299
     11.28793      7.38360     10.11526        -0.174789      0.047329     -0.004806
      9.12174      8.60462     10.15358        -0.023985      0.034475      0.026880
      9.84388      7.33818     10.12434         0.073172      0.008414     -0.013466
     12.01733      8.60854     10.11504        -0.125922      0.091940      0.011998
     11.30767      9.83785     10.11976         0.140185     -0.077927      0.007472
      9.19106     11.07867     10.14308         0.038720     -0.038890      0.005714
      9.87575      9.82755     10.13611        -0.076967      0.004981      0.012257
     12.02057     11.07799     10.12126        -0.023817      0.062286      0.006805
      3.57451      6.16490     10.10997        -0.221432      0.057193     -0.002879
      4.99429      3.69838     10.04587        -0.343160     -0.436601      0.015916
      7.73291      3.69837     10.04648         0.346308     -0.438838      0.014688
      4.97876      8.61942     10.19950        -0.325903      0.582326     -0.040045
      7.74832      8.61929     10.19952         0.326669      0.584851     -0.040244
      9.15274      6.16475     10.10988         0.218180      0.056114     -0.002226
      6.36381      4.97990      9.55801        -0.000453     -2.124904     -0.718551
      6.36357      7.01402     10.39691        -0.000903      2.088817      0.793419
    total drift:                               -0.000016     -0.014546     -0.006493

  FREE ENERGIE OF THE ION-ELECTRON SYSTEM (eV)
  free  energy   TOTEN  =      -589.14811698 eV

  energy  without entropy=     -589.14755926  energy(sigma->0) =     -589.14783812

 stress matrix after NEB project (eV)
    -41.85349     -0.03086      0.00054
     -0.03086    -40.01128      1.87997
      0.00054      1.87824      0.18334
  FORCES: max atom, RMS     2.243108    0.476413
  FORCE total and by dimension    3.565147    2.124904
  Stress total and by dimension   57.963046   41.853490
 writing wavefunctions

 total charge

[...]

 magnetization (x)

# of ion       s       p       d       tot
    1        0.001   0.010   0.000   0.010
    2        0.000   0.003   0.000   0.003
    3       -0.001  -0.010   0.000  -0.011
    4       -0.001  -0.017   0.000  -0.019
    5        0.001   0.006   0.000   0.006
    6        0.000   0.004   0.000   0.004
    7       -0.001  -0.008   0.000  -0.008
    8       -0.003  -0.038   0.000  -0.040
    9        0.001   0.003   0.000   0.004
   10       -0.001  -0.015   0.000  -0.016
   11        0.000  -0.001   0.000  -0.001
   12        0.001   0.007   0.000   0.008
   13        0.001   0.008   0.000   0.009
   14       -0.001  -0.011   0.000  -0.012
   15       -0.001  -0.017   0.000  -0.019
   16        0.001   0.009   0.000   0.010
   17        0.000   0.001   0.000   0.002
   18       -0.001  -0.016   0.000  -0.017
   19       -0.000  -0.004   0.000  -0.004
   20        0.000  -0.000   0.000  -0.000
   21        0.001   0.006   0.000   0.007
   22        0.000  -0.000   0.000  -0.000
   23        0.001   0.006   0.000   0.007
   24        0.000  -0.015   0.000  -0.015
   25        0.000  -0.015   0.000  -0.015
   26        0.001   0.010   0.000   0.011
   27       -0.000  -0.003   0.000  -0.003
   28        0.001   0.010   0.000   0.011
   29       -0.000  -0.003   0.000  -0.003
   30       -0.001  -0.010   0.000  -0.011
   31       -0.001  -0.017   0.000  -0.019
   32        0.001   0.010   0.000   0.010
   33        0.000   0.003   0.000   0.003
   34       -0.001  -0.008   0.000  -0.008
   35       -0.003  -0.038   0.000  -0.040
   36        0.001   0.006   0.000   0.006
   37        0.000   0.004   0.000   0.004
   38        0.000  -0.001   0.000  -0.001
   39        0.001   0.003   0.000   0.004
   40       -0.001  -0.015   0.000  -0.016
   41       -0.001  -0.011   0.000  -0.012
   42       -0.001  -0.017   0.000  -0.019
   43        0.001   0.007   0.000   0.008
   44        0.001   0.008   0.000   0.009
   45       -0.001  -0.016   0.000  -0.017
   46       -0.000  -0.004   0.000  -0.004
   47        0.001   0.009   0.000   0.010
   48        0.000   0.001   0.000   0.002
   49       -0.006  -0.094   0.000  -0.099
   50       -0.006  -0.045   0.000  -0.050
   51       -0.006  -0.045   0.000  -0.050
   52       -0.000   0.001   0.000   0.001
   53       -0.000   0.001   0.000   0.001
   54       -0.006  -0.094   0.000  -0.099
   55       -0.043  -0.039   1.450   1.368
   56       -0.007  -0.013   4.220   4.200
tot         -0.075  -0.504   5.670   5.091