 vasp.5.4.4.18Apr17-6-g9f103f2a35 (build Feb 25 2019 10:51:38) complex

 executed on             LinuxIFC date 2022.01.27  14:08:13

 INCAR:
 POTCAR:    PAW_PBE C 08Apr2002
 POTCAR:    PAW_PBE N 08Apr2002
 POTCAR:    PAW_PBE Fe 06Sep2000
 POTCAR:    PAW_PBE Zn 06Sep2000

 POTCAR:    PAW_PBE C 08Apr2002
   VRHFIN =C: s2p2

   TITEL  = PAW_PBE C 08Apr2002
   POMASS =   12.011; ZVAL   =    4.000    mass and valenz
   ENMAX  =  400.000; ENMIN  =  300.000 eV

 POTCAR:    PAW_PBE N 08Apr2002
   VRHFIN =N: s2p3

   TITEL  = PAW_PBE N 08Apr2002
   POMASS =   14.001; ZVAL   =    5.000    mass and valenz
   ENMAX  =  400.000; ENMIN  =  300.000 eV

 POTCAR:    PAW_PBE Fe 06Sep2000
   VRHFIN =Fe:  d7 s1

   TITEL  = PAW_PBE Fe 06Sep2000
   POMASS =   55.847; ZVAL   =    8.000    mass and valenz
   ENMAX  =  267.882; ENMIN  =  200.911 eV

 POTCAR:    PAW_PBE Zn 06Sep2000
   VRHFIN =Zn: d10 p2

   TITEL  = PAW_PBE Zn 06Sep2000
   POMASS =   65.390; ZVAL   =   12.000    mass and valenz
   ENMAX  =  276.723; ENMIN  =  207.542 eV

  PAW_PBE C 08Apr2002                   :
  PAW_PBE N 08Apr2002                   :
  PAW_PBE Fe 06Sep2000                  :
  PAW_PBE Zn 06Sep2000                  :

 POSCAR:  C  N Fe Zn
  positions in cartesian coordinates
 exchange correlation table for  LEXCH =        8
   RHO(1)=    0.500       N(1)  =     2000
   RHO(2)=  100.500       N(2)  =     4000

 VTST: version 3.2, (02/03/18)

 CHAIN: initializing optimizer

 OPT: Using VASP Conjugate-Gradient optimizer
 CHAIN: Read ICHAIN            0

 POSCAR:  C  N Fe Zn
  positions in cartesian coordinates

 ion  position               nearest neighbor table
   1  0.223  0.003  0.499-  19 1.43   4 1.43   3 1.43
   2  0.058  0.102  0.497-   3 1.42  38 1.44   7 1.44
   3  0.112  0.002  0.498-   2 1.42  17 1.43   1 1.43
   4  0.280  0.104  0.499-  21 1.43   1 1.43   5 1.44
   5  0.227  0.206  0.499-   7 1.44   4 1.44   8 1.45
   6  0.059  0.302  0.497-   7 1.43  11 1.43  42 1.43
   7  0.115  0.203  0.498-   6 1.43   5 1.44   2 1.44
   8  0.284  0.308  0.500-  25 1.45   5 1.45   9 1.45
   9  0.226  0.409  0.500-  55 1.38  11 1.44   8 1.45
  10  0.056  0.501  0.498-  46 1.42  14 1.42  11 1.43
  11  0.114  0.403  0.498-   6 1.43  10 1.43   9 1.44
  12  0.217  0.604  0.501-  55 1.39  14 1.40  15 1.42
  13  0.053  0.702  0.499-  18 1.41  50 1.42  14 1.42
  14  0.109  0.603  0.499-  12 1.40  10 1.42  13 1.42
  15  0.273  0.705  0.502-  58 1.38  16 1.41  12 1.42
  16  0.219  0.803  0.500-  15 1.41  19 1.42  18 1.42
  17  0.054  0.902  0.498-  18 1.42   3 1.43  54 1.43
  18  0.108  0.803  0.499-  13 1.41  17 1.42  16 1.42
  19  0.277  0.903  0.500-  16 1.42  32 1.43   1 1.43
  20  0.555  0.995  0.498-  22 1.43  23 1.43  34 1.44
  21  0.390  0.101  0.499-   4 1.43  26 1.43  22 1.45
  22  0.444  0.998  0.499-  20 1.43  32 1.43  21 1.45
  23  0.612  0.096  0.497-  24 1.43  20 1.43  36 1.43
  24  0.558  0.196  0.497-  27 1.42  26 1.43  23 1.43
  25  0.396  0.305  0.500-  56 1.38   8 1.45  26 1.45
  26  0.448  0.201  0.498-  24 1.43  21 1.43  25 1.45
  27  0.616  0.295  0.496-  28 1.41  24 1.42  40 1.42
  28  0.562  0.394  0.497-  56 1.38  27 1.41  29 1.42
  29  0.618  0.495  0.497-  57 1.39  44 1.40  28 1.42
  30  0.609  0.690  0.499-  57 1.38  48 1.44  31 1.45
  31  0.551  0.791  0.500-  33 1.45  34 1.45  30 1.45
  32  0.387  0.898  0.500-  19 1.43  22 1.43  33 1.45
  33  0.439  0.794  0.501-  58 1.38  31 1.45  32 1.45
  34  0.608  0.893  0.499-  52 1.44  20 1.44  31 1.45
  35  0.889  0.999  0.497-  54 1.42  38 1.43  37 1.44
  36  0.723  0.097  0.496-  37 1.42  41 1.43  23 1.43
  37  0.777  0.997  0.497-  36 1.42  35 1.44  52 1.44
  38  0.946  0.099  0.496-  39 1.42  35 1.43   2 1.44
  39  0.891  0.199  0.495-  38 1.42  41 1.43  42 1.43
  40  0.726  0.296  0.494-  45 1.41  41 1.42  27 1.42
  41  0.781  0.197  0.495-  40 1.42  36 1.43  39 1.43
  42  0.948  0.299  0.496-  43 1.42  39 1.43   6 1.43
  43  0.892  0.398  0.495-  46 1.42  45 1.42  42 1.42
  44  0.726  0.496  0.496-  29 1.40  49 1.42  45 1.42
  45  0.782  0.396  0.495-  40 1.41  43 1.42  44 1.42
  46  0.946  0.500  0.496-  10 1.42  43 1.42  47 1.43
  47  0.889  0.599  0.497-  49 1.41  50 1.42  46 1.43
  48  0.721  0.695  0.498-  53 1.43  49 1.43  30 1.44
  49  0.779  0.597  0.496-  47 1.41  44 1.42  48 1.43
  50  0.943  0.700  0.498-  47 1.42  13 1.42  51 1.42
  51  0.887  0.799  0.497-  50 1.42  54 1.43  53 1.43
  52  0.720  0.896  0.498-  53 1.43  37 1.44  34 1.44
  53  0.776  0.797  0.497-  52 1.43  48 1.43  51 1.43
  54  0.943  0.900  0.497-  35 1.42  17 1.43  51 1.43
  55  0.275  0.510  0.503-   9 1.38  12 1.39  59 1.90
  56  0.455  0.400  0.501-  28 1.38  25 1.38  59 1.91
  57  0.560  0.589  0.500-  30 1.38  29 1.39  59 1.90
  58  0.380  0.700  0.503-  15 1.38  33 1.38  59 1.91
  59  0.418  0.550  0.508-  57 1.90  55 1.90  56 1.91  58 1.91  60 2.77
  60  0.432  0.559  0.646-  59 2.77

  LATTYP: Found a triclinic cell.
 ALAT       =    12.2966000000
 B/A-ratio  =     1.4377908688
 C/A-ratio  =     2.2141298814
 COS(alpha) =     0.0101942360
 COS(beta)  =     0.5001088667
 COS(gamma) =     0.6846169898

  Lattice vectors:

 A1 = (  -0.1837689738,  12.2952267374,   0.0000000000)
 A2 = (  12.7046310262,  12.2952267374,   0.0000000000)
 A3 = ( -12.6101482908,  13.4291436692, -20.0477432967)

Analysis of symmetry for initial positions (statically):
 Subroutine PRICEL returns:
 Original cell was already a primitive cell.

 Routine SETGRP: Setting up the symmetry group for a
 triclinic supercell.

 Subroutine GETGRP returns: Found  1 space group operations
 (whereof  1 operations were pure point group operations)
 out of a pool of  2 trial point group operations.

The static configuration has the point symmetry C_1 .

Analysis of symmetry for dynamics (positions and initial velocities):
 Subroutine PRICEL returns:
 Original cell was already a primitive cell.

[...]

The dynamic configuration has the point symmetry C_1 .

Analysis of structural, dynamic, and magnetic symmetry:
 Subroutine PRICEL returns:
 Original cell was already a primitive cell.

 Routine SETGRP: Setting up the symmetry group for a
 triclinic supercell.

 Subroutine GETGRP returns: Found  1 space group operations
 (whereof  1 operations were pure point group operations)
 out of a pool of  2 trial point group operations.

The magnetic configuration has the point symmetry C_1 .

 Subroutine INISYM returns: Found  1 space group operations
 (whereof  1 operations are pure point group operations),
 and found     1 'primitive' translations

 KPOINTS: KPOINTS created by Atomic Simulation Env

Automatic generation of k-mesh.
Space group operators:
 irot       det(A)        alpha          n_x          n_y          n_z        tau_x        tau_y        tau_z
    1     1.000000     0.000000     1.000000     0.000000     0.000000     0.000000     0.000000     0.000000

 Subroutine IBZKPT returns following result:

 Found      2 irreducible k-points:

 Following reciprocal coordinates:
            Coordinates               Weight
  0.250000  0.250000  0.000000      2.000000
 -0.250000  0.250000 -0.000000      2.000000

 Following cartesian coordinates:
            Coordinates               Weight
  0.019397  0.020623  0.001613      2.000000
 -0.019397  0.020043  0.000687      2.000000

 Subroutine IBZKPT_HF returns following result:

 Found      4 k-points in 1st BZ
 the following      4 k-points will be used (e.g. in the exchange kernel)
 Following reciprocal coordinates:   # in IRBZ
  0.250000  0.250000  0.000000    0.25000000   1 t-inv F
 -0.250000  0.250000 -0.000000    0.25000000   2 t-inv F
 -0.250000 -0.250000  0.000000    0.25000000   1 t-inv T
  0.250000 -0.250000  0.000000    0.25000000   2 t-inv T

 SYSTEM =  unknown system
 POSCAR =   C  N Fe Zn

 Startparameter for this run:
   NWRITE =      2    write-flag & timer
   PREC   = accura    normal or accurate (medium, high low for compatibility)
   ISTART =      1    job   : 0-new  1-cont  2-samecut
   ICHARG =      0    charge: 1-file 2-atom 10-const
   ISPIN  =      2    spin polarized calculation?
   LNONCOLLINEAR =      F non collinear calculations
   LSORBIT =      F    spin-orbit coupling
   INIWAV =      1    electr: 0-lowe 1-rand  2-diag
   LASPH  =      T    aspherical Exc in radial PAW
   METAGGA=      F    non-selfconsistent MetaGGA calc.

 Electronic Relaxation 1
   ENCUT  =  500.0 eV  36.75 Ry    6.06 a.u.  23.50 22.42 36.62*2*pi/ulx,y,z
   ENINI  =  500.0     initial cutoff
   ENAUG  =  644.9 eV  augmentation charge cutoff
   NELM   =    250;   NELMIN=  2; NELMDL=  0     # of ELM steps
   EDIFF  = 0.1E-03   stopping-criterion for ELM
   LREAL  =      F    real-space projection
   NLSPLINE    = F    spline interpolate recip. space projectors
   LCOMPAT=      F    compatible to vasp.4.4
   GGA_COMPAT  = T    GGA compatible to vasp.4.4-vasp.4.6
   LMAXPAW     = -100 max onsite density
   LMAXMIX     =    2 max onsite mixed and CHGCAR
   VOSKOWN=      0    Vosko Wilk Nusair interpolation
   ROPT   =    0.00000   0.00000   0.00000   0.00000
 Ionic relaxation
   EDIFFG = -.3E-01   stopping-criterion for IOM
   NSW    =      0    number of steps for IOM
   NBLOCK =      1;   KBLOCK =      1    inner block; outer block
   IBRION =     -1    ionic relax: 0-MD 1-quasi-New 2-CG
   NFREE  =      1    steps in history (QN), initial steepest desc. (CG)
   ISIF   =      2    stress and relaxation
   IWAVPR =     10    prediction:  0-non 1-charg 2-wave 3-comb
   ISYM   =      3    0-nonsym 1-usesym 2-fastsym
   LCORR  =      T    Harris-Foulkes like correction to forces

   POTIM  = 0.5000    time-step for ionic-motion
   TEIN   =    0.0    initial temperature
   TEBEG  =    0.0;   TEEND  =   0.0 temperature during run
   SMASS  =  -3.00    Nose mass-parameter (am)
   estimated Nose-frequenzy (Omega)   =  0.10E-29 period in steps =****** mass=  -0.380E-26a.u.
   SCALEE = 1.0000    scale energy and forces
   NPACO  =    256;   APACO  = 16.0  distance and # of slots for P.C.
   PSTRESS=    0.0 pullay stress

  Mass of Ions in am
   POMASS =  12.01 14.00 55.85 65.39
  Ionic Valenz
   ZVAL   =   4.00  5.00  8.00 12.00
  Atomic Wigner-Seitz radii
  virtual crystal weights
   VCA    =   1.00  1.00  1.00  1.00
   NELECT =     256.0000    total number of electrons
   NUPDOWN=      -1.0000    fix difference up-down

 DOS related values:
   EMIN   =  10.00;   EMAX   =-10.00  energy-range for DOS
   EFERMI =   0.00
   ISMEAR =     0;   SIGMA  =   0.10  broadening in eV -4-tet -1-fermi 0-gaus

 Electronic relaxation 2 (details)
   IALGO  =     53    algorithm
   LDIAG  =      T    sub-space diagonalisation (order eigenvalues)
   LSUBROT=      F    optimize rotation matrix (better conditioning)
   TURBO    =      0    0=normal 1=particle mesh
   IRESTART =      0    0=no restart 2=restart with 2 vectors
   NREBOOT  =      0    no. of reboots
   NMIN     =      0    reboot dimension
   EREF     =   0.00    reference energy to select bands
   IMIX   =      4    mixing-type and parameters
     AMIX     =   0.40;   BMIX     =  1.00
     AMIX_MAG =   1.60;   BMIX_MAG =  1.00
     AMIN     =   0.10
     WC   =   100.;   INIMIX=   1;  MIXPRE=   1;  MAXMIX= -45

 Intra band minimization:
[...]
   46        0.868   1.787   0.000   2.655
   47        0.868   1.787   0.000   2.655
   48        0.863   1.765   0.000   2.628
   49        0.870   1.781   0.000   2.651
   50        0.872   1.783   0.000   2.655
   51        0.866   1.771   0.000   2.637
   52        0.862   1.765   0.000   2.627
   53        0.866   1.767   0.000   2.633
   54        0.868   1.776   0.000   2.644
   55        1.230   2.674   0.000   3.903
   56        1.232   2.668   0.000   3.901
   57        1.230   2.674   0.000   3.904
   58        1.232   2.668   0.000   3.900
   59        0.459   0.664   6.300   7.423
   60        0.850   0.024   9.766  10.640
tot         52.945 106.798  16.066 175.809

 magnetization (x)

[...]

  FORCE on cell =-STRESS in cart. coord.  units (eV):
  Direction    XX          YY          ZZ          XY          YZ          ZX
  Alpha Z   113.90027   113.90027   113.90027
  Ewald   49628.58673 49649.21734-58096.65028    31.39305     1.51327     6.69767
  Hartree 49405.56239 49398.67803-47953.17214    -7.20028     2.65238     2.66933
  E(xc)    -759.73253  -759.44073  -773.51013     0.28407    -0.01301     0.02390
  Local  ************************102891.98405   -13.99565    -4.24101    -9.09713
  n-local  -119.11306  -119.11483  -113.70897     0.85514     0.03978    -0.07754
  augment    43.44709    42.83446    44.42517    -0.97596     0.01909    -0.02806
  Kinetic  3730.27522  3721.77338  4253.65797   -14.24490     0.01148    -0.18280
  Fock     -394.31881  -394.12927  -367.09352     0.18956     0.03427    -0.06047
  Total     -38.61469   -37.99214    -0.16757    -3.69497     0.01623    -0.05512
  in kB     -19.47431   -19.16035    -0.08451    -1.86346     0.00819    -0.02780

 VOLUME and BASIS-vectors are now :
  energy-cutoff  :      500.00
  volume of cell :     3176.88
      direct lattice vectors                 reciprocal lattice vectors
    12.888400000  0.000000000  0.000000000     0.077589150  0.001159676  0.001853713
    -0.183768974 12.295226737  0.000000000     0.000000000  0.081332376  0.004600226
    -0.462020683 -1.133916932 20.047743297     0.000000000  0.000000000  0.049880926

  length of vectors
    12.888400000 12.296600000 20.085100000     0.077619954  0.081462368  0.049880926

 FORCES acting on ions:
    Electron-Ion                     Ewald-Force                    Non-Local-Force
   0.642E+01 -.831E+01 0.950E+01   -.668E+01 0.865E+01 -.953E+01   0.222E+00 -.292E+00 0.298E-01
   0.538E+01 -.241E+01 0.117E+02   -.532E+01 0.242E+01 -.117E+02   -.447E-01 -.355E-02 0.195E-01
   0.389E+01 -.409E+01 0.910E+01   -.396E+01 0.411E+01 -.908E+01   0.620E-01 -.268E-01 -.196E-01
   0.737E+01 0.940E+00 0.106E+02   -.753E+01 -.871E+00 -.106E+02   0.133E+00 -.872E-01 -.904E-02
   0.726E+01 0.105E+02 0.122E+02   -.731E+01 -.103E+02 -.122E+02   0.173E-01 -.177E+00 0.239E-01
   0.864E+01 0.115E+02 0.164E+02   -.860E+01 -.118E+02 -.164E+02   -.281E-01 0.331E+00 0.267E-01
   0.440E+01 0.108E+02 0.128E+02   -.429E+01 -.110E+02 -.128E+02   -.769E-01 0.107E+00 -.488E-02
   0.188E+02 0.297E+02 0.170E+02   -.189E+02 -.297E+02 -.170E+02   0.397E-01 0.170E-01 -.281E-01
   0.332E+02 0.579E+02 0.234E+02   -.345E+02 -.609E+02 -.235E+02   0.133E+01 0.330E+01 0.556E-01
   0.192E+02 0.106E+02 0.161E+02   -.196E+02 -.108E+02 -.161E+02   0.363E+00 0.181E+00 -.212E-01
   0.186E+02 0.197E+02 0.184E+02   -.189E+02 -.200E+02 -.184E+02   0.180E+00 0.263E+00 0.274E-01
   0.572E+02 -.252E+02 0.265E+02   -.591E+02 0.277E+02 -.266E+02   0.181E+01 -.261E+01 0.974E-01
   0.170E+02 -.762E+01 0.125E+02   -.172E+02 0.801E+01 -.125E+02   0.149E+00 -.325E+00 0.856E-02
   0.352E+02 -.742E+01 0.166E+02   -.357E+02 0.773E+01 -.166E+02   0.517E+00 -.244E+00 0.189E-01
   0.530E+02 -.395E+02 0.252E+02   -.561E+02 0.397E+02 -.253E+02   0.329E+01 -.191E+00 0.121E+00
   0.234E+02 -.295E+02 0.143E+02   -.240E+02 0.299E+02 -.144E+02   0.526E+00 -.339E+00 0.450E-01
   0.890E+01 -.115E+02 0.964E+01   -.900E+01 0.117E+02 -.966E+01   0.745E-01 -.136E+00 0.209E-01
   0.139E+02 -.162E+02 0.111E+02   -.143E+02 0.162E+02 -.111E+02   0.377E+00 -.867E-01 0.596E-03
   0.721E+01 -.261E+02 0.103E+02   -.725E+01 0.265E+02 -.103E+02   0.755E-01 -.451E+00 -.325E-01
   -.688E+01 -.797E+00 0.118E+02   0.704E+01 0.755E+00 -.117E+02   -.132E+00 0.101E+00 -.256E-01
   0.120E+01 0.103E+02 0.124E+02   -.143E+01 -.105E+02 -.124E+02   0.237E+00 0.157E+00 -.334E-02
   -.574E+00 -.973E+01 0.116E+02   0.807E+00 0.989E+01 -.116E+02   -.232E+00 -.158E+00 0.301E-01
   -.616E+01 0.902E+01 0.166E+02   0.641E+01 -.937E+01 -.166E+02   -.222E+00 0.287E+00 0.312E-01
   -.678E+01 0.270E+02 0.216E+02   0.682E+01 -.274E+02 -.216E+02   -.766E-01 0.446E+00 -.329E-01
   0.317E+02 0.608E+02 0.266E+02   -.338E+02 -.635E+02 -.266E+02   0.225E+01 0.285E+01 0.898E-02
   0.689E+01 0.247E+02 0.199E+02   -.698E+01 -.251E+02 -.200E+02   0.119E+00 0.314E+00 0.294E-01
   -.234E+02 0.303E+02 0.327E+02   0.240E+02 -.307E+02 -.328E+02   -.521E+00 0.344E+00 0.693E-01
   -.519E+02 0.399E+02 0.465E+02   0.551E+02 -.401E+02 -.466E+02   -.329E+01 0.195E+00 0.214E+00
   -.570E+02 0.249E+02 0.475E+02   0.589E+02 -.274E+02 -.477E+02   -.181E+01 0.261E+01 0.213E+00
   -.327E+02 -.597E+02 0.283E+02   0.340E+02 0.628E+02 -.283E+02   -.133E+01 -.330E+01 0.384E-02
   -.177E+02 -.306E+02 0.161E+02   0.177E+02 0.307E+02 -.161E+02   -.396E-01 -.221E-01 -.344E-01
   -.594E+01 -.240E+02 0.129E+02   0.603E+01 0.244E+02 -.129E+02   -.120E+00 -.305E+00 0.156E-01
   -.297E+02 -.609E+02 0.204E+02   0.318E+02 0.635E+02 -.205E+02   -.225E+01 -.285E+01 0.804E-01
   -.684E+01 -.106E+02 0.119E+02   0.690E+01 0.105E+02 -.120E+02   -.101E-01 0.169E+00 0.281E-01
   0.215E+01 -.434E+01 0.119E+02   -.216E+01 0.441E+01 -.119E+02   0.263E-01 -.429E-01 0.135E-01
   -.417E+01 0.450E+01 0.168E+02   0.425E+01 -.452E+01 -.167E+02   -.600E-01 0.242E-01 -.226E-02
   -.570E+01 0.241E+01 0.131E+02   0.564E+01 -.240E+01 -.131E+02   0.437E-01 0.151E-01 0.786E-02
   -.271E+01 0.445E+01 0.132E+02   0.272E+01 -.452E+01 -.132E+02   -.245E-01 0.357E-01 -.745E-02
   -.273E+01 0.506E+01 0.182E+02   0.272E+01 -.513E+01 -.182E+02   -.299E-01 0.656E-01 0.206E-01
   -.144E+02 0.166E+02 0.289E+02   0.148E+02 -.167E+02 -.289E+02   -.391E+00 0.875E-01 0.302E-01
   -.953E+01 0.120E+02 0.213E+02   0.965E+01 -.121E+02 -.213E+02   -.680E-01 0.135E+00 0.111E-01
   -.322E+01 0.964E+01 0.186E+02   0.328E+01 -.973E+01 -.186E+02   -.561E-01 0.110E+00 0.884E-02
   -.557E+01 0.862E+01 0.216E+02   0.565E+01 -.865E+01 -.216E+02   -.555E-01 0.348E-01 0.684E-02
   -.365E+02 0.733E+01 0.328E+02   0.370E+02 -.764E+01 -.328E+02   -.512E+00 0.243E+00 0.405E-01
   -.181E+02 0.777E+01 0.288E+02   0.183E+02 -.815E+01 -.288E+02   -.158E+00 0.331E+00 0.265E-01
   0.410E+01 0.159E+00 0.177E+02   -.421E+01 -.165E+00 -.177E+02   0.161E+00 -.389E-01 0.155E-01
   -.578E+01 -.369E+00 0.168E+02   0.591E+01 0.380E+00 -.168E+02   -.159E+00 0.425E-01 0.578E-02
   -.193E+02 -.205E+02 0.213E+02   0.196E+02 0.209E+02 -.213E+02   -.188E+00 -.266E+00 0.150E-01
   -.205E+02 -.110E+02 0.224E+02   0.209E+02 0.112E+02 -.224E+02   -.372E+00 -.183E+00 -.167E-01
   0.416E+01 -.863E+01 0.123E+02   -.423E+01 0.866E+01 -.123E+02   0.556E-01 -.432E-01 -.625E-02
   0.224E+01 -.987E+01 0.115E+02   -.229E+01 0.998E+01 -.116E+02   0.540E-01 -.101E+00 0.141E-01
   -.454E+01 -.111E+02 0.123E+02   0.442E+01 0.112E+02 -.122E+02   0.820E-01 -.112E+00 -.701E-02
   -.935E+01 -.121E+02 0.139E+02   0.931E+01 0.124E+02 -.139E+02   0.316E-01 -.334E+00 0.140E-01
   0.208E+01 -.497E+01 0.994E+01   -.207E+01 0.505E+01 -.993E+01   0.280E-01 -.671E-01 -.718E-02
   0.258E+02 0.405E+02 0.427E+02   -.655E+01 -.397E+02 -.418E+02   -.185E+02 -.888E+00 -.845E+00
   0.267E+02 0.407E+02 0.552E+02   -.362E+02 -.234E+02 -.541E+02   0.902E+01 -.167E+02 -.977E+00
   -.234E+02 -.427E+02 0.608E+02   0.415E+01 0.419E+02 -.600E+02   0.185E+02 0.917E+00 -.754E+00
   -.225E+02 -.413E+02 0.377E+02   0.321E+02 0.240E+02 -.367E+02   -.904E+01 0.167E+02 -.945E+00
   0.642E+01 -.214E+01 0.712E+02   -.645E+01 0.215E+01 -.715E+02   0.972E-02 -.952E-03 0.131E+00
   -.906E+01 0.514E+01 -.125E+04   0.891E+01 -.511E+01 0.125E+04   0.130E+00 -.234E-01 0.119E+01
   -.112E+00 0.685E-01 0.120E+01   0.501E-12 0.782E-13 0.455E-12   0.125E+00 -.500E-02 -.101E+01

 POSITION                                       TOTAL-FORCE (eV/Angst)
      2.63885     -0.52801     10.00211        -0.017894      0.033638      0.005341
      0.49506      0.68620      9.96801         0.018490     -0.005005      0.006281
      1.20786     -0.54081      9.98651        -0.014247     -0.004597     -0.001421
      3.35586      0.70796     10.00108        -0.018111     -0.028435      0.009698
      2.65273      1.96429     10.00093        -0.035790     -0.022172      0.008143
      0.47951      3.14668      9.96320         0.009802      0.061119      0.008553
      1.21750      1.92732      9.97643         0.028532     -0.042559      0.010279
      3.37216      3.22509     10.02617        -0.027144     -0.058400     -0.008284
      2.60890      4.46139     10.03222         0.183700      0.438466      0.009636
      0.39375      5.59899      9.98312        -0.033195     -0.018703     -0.005668
      1.16986      4.39576      9.98930        -0.109404     -0.054826      0.002650
      2.45794      6.86035     10.04625         0.057369     -0.280401      0.013471
      0.32540      8.07176      9.99442         0.013265      0.055981     -0.006469
      1.05775      6.85006     10.00775         0.092101      0.041292     -0.004332
      3.15432      8.09623     10.05552         0.330043      0.033737      0.016972
      2.44214      9.31045     10.02557        -0.015144     -0.026971      0.000024
      0.30086     10.52437      9.98587        -0.020619     -0.000849     -0.001453
      1.02027      9.30182     10.00254        -0.031722     -0.051429     -0.001035
      3.16950     10.53031     10.02129         0.038239     -0.064282     -0.009246
      6.74216     11.67221      9.98904         0.014404      0.067851     -0.000608
      4.78336      0.67078      9.99791         0.014444      0.014955     -0.002302
      5.31458     11.70963     10.00383        -0.006784     -0.020291     -0.003894
      7.64289      0.61355      9.95866         0.009971     -0.051324      0.010879
      6.92835      1.85050      9.95855        -0.041105      0.051367      0.006128
      4.81972      3.18568     10.01734         0.252472      0.356891      0.005460
      5.50278      1.90597      9.98713         0.040324     -0.074974      0.006971
      7.65536      3.07020      9.93558         0.040111      0.035183      0.020564
      6.94340      4.28443      9.96924        -0.318753     -0.025128      0.057804
      7.64026      5.52044      9.96615        -0.072484      0.267355      0.054181
      7.48927      7.91916     10.01152        -0.161784     -0.427762      0.002823
      6.72622      9.15558     10.03214         0.025971      0.052773     -0.012940
      4.59528     10.47436     10.02619        -0.042492      0.091377     -0.002242
      5.27874      9.19504     10.05289        -0.258147     -0.374617      0.003068
      7.44516     10.41667      9.99922         0.047840      0.003693     -0.000240
     11.03829     11.72139      9.95646         0.023840      0.020349     -0.000762
      9.07376      0.62641      9.94152         0.018909     -0.006259      0.006728
      9.60297     11.69419      9.95555        -0.021823      0.030864      0.006693
     11.94816      0.65953      9.94915        -0.018495     -0.030581      0.000706
     11.22440      1.88095      9.92898        -0.042671     -0.003905      0.015078
      9.07806      3.07892      9.91314         0.000171      0.055459      0.023223
      9.79707      1.85640      9.92094         0.036628     -0.005651      0.014720
     11.93517      3.11950      9.93479        -0.008343      0.023495      0.006893
     11.19213      4.33356      9.92784         0.028291      0.003529      0.010041
      9.04022      5.53088      9.93478        -0.067552     -0.046971      0.017922
      9.77308      4.30899      9.91486        -0.028969     -0.039624      0.016562
     11.86729      5.57857      9.95243         0.055822     -0.055282      0.002329
     11.11955      6.80234      9.95710        -0.040609      0.062071      0.002035
      8.92883      7.98525      9.97489         0.088622      0.047961      0.005119
      9.70487      6.78204      9.95275         0.013451      0.011091      0.005324
     11.79473      8.04766      9.97446        -0.018537     -0.025692     -0.002919
     11.05179      9.26117      9.97181         0.001842     -0.000897     -0.002601
      8.88050     10.45362      9.97579        -0.028788      0.033567      0.007879
      9.61877      9.23431      9.97322        -0.001776     -0.060221      0.006742
     11.76241     10.49992      9.97172         0.031428      0.002906      0.000187
      3.22144      5.70219     10.07441        -0.877329     -0.236240     -0.005851
      5.56468      4.35036     10.03523         0.309671     -0.876138     -0.032860
      6.87743      6.67785     10.02656         0.869546      0.233648     -0.004939
      4.53411      8.03020     10.09146        -0.296468      0.875584     -0.034637
      5.05161      6.18870     10.18191        -0.014379      0.012320     -0.364193
      5.16791      6.14631     12.94878        -0.004738      0.001661      0.101786
    total drift:                                0.026229      0.062318      0.015606

  FREE ENERGIE OF THE ION-ELECTRON SYSTEM (eV)
  free  energy   TOTEN  =      -624.37900897 eV

  energy  without entropy=     -624.37900896  energy(sigma->0) =     -624.37900897

 stress matrix after NEB project (eV)
    -38.61469     -3.69495     -0.05512
     -3.69497    -37.99214      0.01688
     -0.05410      0.01623     -0.16757
  FORCES: max atom, RMS     0.929835    0.284609
  FORCE total and by dimension    2.204575    0.877329
  Stress total and by dimension   54.422765   38.614691
 writing wavefunctions

 total charge

[...]

 magnetization (x)

# of ion       s       p       d       tot
    1       -0.000  -0.000   0.000  -0.000
    2        0.000   0.001   0.000   0.001
    3        0.000  -0.000   0.000  -0.000
    4       -0.000  -0.000   0.000  -0.000
    5        0.000   0.000   0.000   0.001
    6        0.000   0.001   0.000   0.001
    7       -0.000  -0.001   0.000  -0.001
    8       -0.000  -0.003   0.000  -0.003
    9        0.000   0.005   0.000   0.006
   10        0.000   0.001   0.000   0.001
   11       -0.000  -0.001   0.000  -0.001
   12       -0.000  -0.003   0.000  -0.003
   13       -0.000  -0.001   0.000  -0.001
   14        0.000   0.001   0.000   0.002
   15        0.000  -0.001   0.000  -0.000
   16        0.000   0.001   0.000   0.001
   17        0.000  -0.000   0.000  -0.000
   18        0.000  -0.000   0.000  -0.000
   19        0.000   0.002   0.000   0.002
   20       -0.000  -0.000   0.000  -0.000
   21        0.000   0.001   0.000   0.001
   22        0.000   0.001   0.000   0.001
   23       -0.000  -0.000   0.000  -0.000
   24        0.000   0.002   0.000   0.002
   25        0.000   0.006   0.000   0.006
   26       -0.000  -0.001   0.000  -0.001
   27        0.000   0.001   0.000   0.001
   28        0.000  -0.001   0.000  -0.000
   29       -0.000  -0.003   0.000  -0.003
   30        0.000   0.005   0.000   0.006
   31       -0.000  -0.003   0.000  -0.003
   32       -0.000  -0.001   0.000  -0.001
   33        0.000   0.006   0.000   0.006
   34        0.000   0.000   0.000   0.001
   35       -0.000  -0.000   0.000  -0.001
   36       -0.000  -0.000   0.000  -0.000
   37        0.000   0.001   0.000   0.001
   38       -0.000  -0.000   0.000  -0.000
   39        0.000   0.000   0.000   0.000
   40        0.000  -0.000   0.000  -0.000
   41        0.000  -0.000   0.000  -0.000
   42       -0.000  -0.000   0.000  -0.000
   43        0.000   0.001   0.000   0.001
   44        0.000   0.001   0.000   0.002
   45       -0.000  -0.001   0.000  -0.001
   46       -0.000  -0.001   0.000  -0.001
   47       -0.000  -0.001   0.000  -0.001
   48       -0.000  -0.001   0.000  -0.001
   49        0.000   0.001   0.000   0.001
   50        0.000   0.001   0.000   0.001
   51       -0.000  -0.000   0.000  -0.000
   52       -0.000  -0.001   0.000  -0.001
   53        0.000   0.001   0.000   0.001
   54        0.000   0.000   0.000   0.000
   55        0.004   0.016   0.000   0.020
   56        0.004   0.014   0.000   0.017
   57        0.004   0.016   0.000   0.020
   58        0.004   0.014   0.000   0.018
   59       -0.037  -0.016  -1.864  -1.918
   60       -0.020  -0.008  -0.002  -0.030
tot         -0.039   0.050  -1.866  -1.855