 vasp.5.4.4.18Apr17-6-g9f103f2a35 (build Feb 25 2019 10:51:38) complex

 executed on             LinuxIFC date 2021.03.09  23:38:40

 INCAR:
 POTCAR:    PAW_PBE C 08Apr2002
 POTCAR:    PAW_PBE N 08Apr2002
 POTCAR:    PAW_PBE Fe 06Sep2000

 POTCAR:    PAW_PBE C 08Apr2002
   VRHFIN =C: s2p2

   TITEL  = PAW_PBE C 08Apr2002
   POMASS =   12.011; ZVAL   =    4.000    mass and valenz
   ENMAX  =  400.000; ENMIN  =  300.000 eV

 POTCAR:    PAW_PBE N 08Apr2002
   VRHFIN =N: s2p3

   TITEL  = PAW_PBE N 08Apr2002
   POMASS =   14.001; ZVAL   =    5.000    mass and valenz
   ENMAX  =  400.000; ENMIN  =  300.000 eV

 POTCAR:    PAW_PBE Fe 06Sep2000
   VRHFIN =Fe:  d7 s1

   TITEL  = PAW_PBE Fe 06Sep2000
   POMASS =   55.847; ZVAL   =    8.000    mass and valenz
   ENMAX  =  267.882; ENMIN  =  200.911 eV

  PAW_PBE C 08Apr2002                   :
  PAW_PBE N 08Apr2002                   :
  PAW_PBE Fe 06Sep2000                  :

 POSCAR:  C  N Fe
  positions in cartesian coordinates
 exchange correlation table for  LEXCH =        8
   RHO(1)=    0.500       N(1)  =     2000
   RHO(2)=  100.500       N(2)  =     4000

 VTST: version 3.2, (02/03/18)

 CHAIN: initializing optimizer

 OPT: Using VASP Conjugate-Gradient optimizer
 CHAIN: Read ICHAIN            0

 POSCAR:  C  N Fe
  positions in cartesian coordinates

 ion  position               nearest neighbor table
   1  0.222  0.002  0.500-  19 1.42   3 1.42   4 1.44
   2  0.057  0.102  0.499-  36 1.43   3 1.43   7 1.44
   3  0.111  0.002  0.499-   1 1.42   2 1.43  17 1.43
   4  0.278  0.103  0.502-  21 1.42   5 1.44   1 1.44
   5  0.225  0.205  0.504-   7 1.43   4 1.44   8 1.45
   6  0.057  0.303  0.500-   7 1.43  40 1.43  11 1.43
   7  0.113  0.203  0.501-   6 1.43   5 1.43   2 1.44
   8  0.282  0.306  0.509-  25 1.45   5 1.45   9 1.46
   9  0.223  0.407  0.509-  53 1.38  11 1.44   8 1.46
  10  0.054  0.503  0.500-  14 1.43  44 1.44  11 1.44
  11  0.111  0.404  0.502-   6 1.43   9 1.44  10 1.44
  12  0.222  0.603  0.504-  53 1.38  14 1.43  15 1.45
  13  0.053  0.702  0.497-  14 1.42  18 1.43  48 1.44
  14  0.110  0.603  0.499-  13 1.42  10 1.43  12 1.43
  15  0.282  0.702  0.500-  56 1.41  16 1.44  12 1.45
  16  0.223  0.801  0.498-  15 1.44  18 1.44  19 1.44
  17  0.056  0.901  0.497-  18 1.43  52 1.43   3 1.43
  18  0.111  0.801  0.497-  13 1.43  17 1.43  16 1.44
  19  0.277  0.902  0.498-   1 1.42  30 1.43  16 1.44
  20  0.555  0.001  0.497-  32 1.42  23 1.42  22 1.42
  21  0.389  0.101  0.500-   4 1.42  26 1.42  22 1.42
  22  0.444  0.002  0.498-  20 1.42  21 1.42  30 1.43
  23  0.612  0.099  0.497-  24 1.41  20 1.42  34 1.43
  24  0.557  0.197  0.499-  23 1.41  27 1.41  26 1.42
  25  0.394  0.301  0.510-  54 1.39  26 1.43   8 1.45
  26  0.446  0.200  0.502-  21 1.42  24 1.42  25 1.43
  27  0.615  0.295  0.499-  28 1.39  38 1.41  24 1.41
  28  0.561  0.391  0.506-  54 1.37  55 1.38  27 1.39
  29  0.554  0.804  0.498-  57 1.38  32 1.41  31 1.43
  30  0.388  0.902  0.498-  31 1.41  19 1.43  22 1.43
  31  0.443  0.803  0.499-  56 1.40  30 1.41  29 1.43
  32  0.610  0.902  0.497-  29 1.41  20 1.42  50 1.43
  33  0.890  0.001  0.496-  52 1.42  35 1.43  36 1.44
  34  0.724  0.100  0.495-  35 1.42  23 1.43  39 1.43
  35  0.778  0.000  0.495-  34 1.42  50 1.43  33 1.43
  36  0.946  0.101  0.497-  37 1.43   2 1.43  33 1.44
  37  0.891  0.201  0.496-  39 1.42  36 1.43  40 1.43
  38  0.725  0.298  0.496-  39 1.41  27 1.41  43 1.42
  39  0.780  0.199  0.495-  38 1.41  37 1.42  34 1.43
  40  0.945  0.302  0.497-  37 1.43   6 1.43  41 1.43
  41  0.889  0.402  0.498-  43 1.43  44 1.43  40 1.43
  42  0.717  0.497  0.500-  55 1.39  43 1.44  47 1.44
  43  0.777  0.400  0.498-  38 1.42  41 1.43  42 1.44
  44  0.942  0.502  0.499-  41 1.43  10 1.44  45 1.44
  45  0.883  0.601  0.498-  48 1.43  44 1.44  47 1.46
  46  0.714  0.702  0.498-  57 1.39  51 1.44  47 1.45
  47  0.770  0.600  0.499-  42 1.44  46 1.45  45 1.46
  48  0.941  0.700  0.497-  49 1.42  45 1.43  13 1.44
  49  0.886  0.800  0.496-  48 1.42  51 1.43  52 1.44
  50  0.721  0.901  0.496-  51 1.43  32 1.43  35 1.43
  51  0.774  0.800  0.497-  50 1.43  49 1.43  46 1.44
  52  0.944  0.900  0.496-  33 1.42  17 1.43  49 1.44
  53  0.273  0.506  0.515-   9 1.38  12 1.38  58 1.95
  54  0.456  0.392  0.518-  28 1.37  25 1.39  58 1.93
  55  0.609  0.490  0.504-  28 1.38  42 1.39  59 1.89
  56  0.392  0.703  0.500-  31 1.40  15 1.41  59 1.95
  57  0.606  0.706  0.498-  29 1.38  46 1.39  59 1.90
  58  0.401  0.513  0.568-  54 1.93  53 1.95  59 2.10
  59  0.503  0.596  0.503-  55 1.89  57 1.90  56 1.95  58 2.10

  LATTYP: Found a simple orthorhombic cell.
 ALAT       =    12.4000000000
 B/A-ratio  =     1.0330645161
 C/A-ratio  =     1.6129032258

  Lattice vectors:

 A1 = (   0.0000000000, -12.4000000000,   0.0000000000)
 A2 = ( -12.8100000000,   0.0000000000,   0.0000000000)
 A3 = (   0.0000000000,   0.0000000000, -20.0000000000)

Analysis of symmetry for initial positions (statically):
 Subroutine PRICEL returns:
 Original cell was already a primitive cell.

 Routine SETGRP: Setting up the symmetry group for a
 simple orthorhombic supercell.

 Subroutine GETGRP returns: Found  1 space group operations
 (whereof  1 operations were pure point group operations)
 out of a pool of  8 trial point group operations.

The static configuration has the point symmetry C_1 .

Analysis of symmetry for dynamics (positions and initial velocities):
 Subroutine PRICEL returns:
 Original cell was already a primitive cell.

[...]

The dynamic configuration has the point symmetry C_1 .

Analysis of structural, dynamic, and magnetic symmetry:
 Subroutine PRICEL returns:
 Original cell was already a primitive cell.

 Routine SETGRP: Setting up the symmetry group for a
 simple orthorhombic supercell.

 Subroutine GETGRP returns: Found  1 space group operations
 (whereof  1 operations were pure point group operations)
 out of a pool of  8 trial point group operations.

The magnetic configuration has the point symmetry C_1 .

 Subroutine INISYM returns: Found  1 space group operations
 (whereof  1 operations are pure point group operations),
 and found     1 'primitive' translations

 KPOINTS: KPOINTS created by Atomic Simulation Env

Automatic generation of k-mesh.
Space group operators:
 irot       det(A)        alpha          n_x          n_y          n_z        tau_x        tau_y        tau_z
    1     1.000000     0.000000     1.000000     0.000000     0.000000     0.000000     0.000000     0.000000

 Subroutine IBZKPT returns following result:

 Found      2 irreducible k-points:

 Following reciprocal coordinates:
            Coordinates               Weight
  0.250000  0.250000  0.000000      2.000000
 -0.250000  0.250000  0.000000      2.000000

 Following cartesian coordinates:
            Coordinates               Weight
  0.019516  0.020161  0.000000      2.000000
 -0.019516  0.020161  0.000000      2.000000

 Subroutine IBZKPT_HF returns following result:

 Found      4 k-points in 1st BZ
 the following      4 k-points will be used (e.g. in the exchange kernel)
 Following reciprocal coordinates:   # in IRBZ
  0.250000  0.250000  0.000000    0.25000000   1 t-inv F
 -0.250000  0.250000  0.000000    0.25000000   2 t-inv F
 -0.250000 -0.250000  0.000000    0.25000000   1 t-inv T
  0.250000 -0.250000  0.000000    0.25000000   2 t-inv T

 SYSTEM =  unknown system
 POSCAR =   C  N Fe

 Startparameter for this run:
   NWRITE =      2    write-flag & timer
   PREC   = accura    normal or accurate (medium, high low for compatibility)
   ISTART =      1    job   : 0-new  1-cont  2-samecut
   ICHARG =      0    charge: 1-file 2-atom 10-const
   ISPIN  =      2    spin polarized calculation?
   LNONCOLLINEAR =      F non collinear calculations
   LSORBIT =      F    spin-orbit coupling
   INIWAV =      1    electr: 0-lowe 1-rand  2-diag
   LASPH  =      T    aspherical Exc in radial PAW
   METAGGA=      F    non-selfconsistent MetaGGA calc.

 Electronic Relaxation 1
   ENCUT  =  500.0 eV  36.75 Ry    6.06 a.u.  23.36 22.61 36.46*2*pi/ulx,y,z
   ENINI  =  500.0     initial cutoff
   ENAUG  =  644.9 eV  augmentation charge cutoff
   NELM   =    250;   NELMIN=  2; NELMDL=  0     # of ELM steps
   EDIFF  = 0.1E-03   stopping-criterion for ELM
   LREAL  =      F    real-space projection
   NLSPLINE    = F    spline interpolate recip. space projectors
   LCOMPAT=      F    compatible to vasp.4.4
   GGA_COMPAT  = T    GGA compatible to vasp.4.4-vasp.4.6
   LMAXPAW     = -100 max onsite density
   LMAXMIX     =    2 max onsite mixed and CHGCAR
   VOSKOWN=      0    Vosko Wilk Nusair interpolation
   ROPT   =    0.00000   0.00000   0.00000
 Ionic relaxation
   EDIFFG = -.3E-01   stopping-criterion for IOM
   NSW    =      0    number of steps for IOM
   NBLOCK =      1;   KBLOCK =      1    inner block; outer block
   IBRION =     -1    ionic relax: 0-MD 1-quasi-New 2-CG
   NFREE  =      1    steps in history (QN), initial steepest desc. (CG)
   ISIF   =      2    stress and relaxation
   IWAVPR =     10    prediction:  0-non 1-charg 2-wave 3-comb
   ISYM   =      3    0-nonsym 1-usesym 2-fastsym
   LCORR  =      T    Harris-Foulkes like correction to forces

   POTIM  = 0.5000    time-step for ionic-motion
   TEIN   =    0.0    initial temperature
   TEBEG  =    0.0;   TEEND  =   0.0 temperature during run
   SMASS  =  -3.00    Nose mass-parameter (am)
   estimated Nose-frequenzy (Omega)   =  0.10E-29 period in steps =****** mass=  -0.375E-26a.u.
   SCALEE = 1.0000    scale energy and forces
   NPACO  =    256;   APACO  = 16.0  distance and # of slots for P.C.
   PSTRESS=    0.0 pullay stress

  Mass of Ions in am
   POMASS =  12.01 14.00 55.85
  Ionic Valenz
   ZVAL   =   4.00  5.00  8.00
  Atomic Wigner-Seitz radii
  virtual crystal weights
   VCA    =   1.00  1.00  1.00
   NELECT =     249.0000    total number of electrons
   NUPDOWN=      -1.0000    fix difference up-down

 DOS related values:
   EMIN   =  10.00;   EMAX   =-10.00  energy-range for DOS
   EFERMI =   0.00
   ISMEAR =     0;   SIGMA  =   0.10  broadening in eV -4-tet -1-fermi 0-gaus

 Electronic relaxation 2 (details)
   IALGO  =     53    algorithm
   LDIAG  =      T    sub-space diagonalisation (order eigenvalues)
   LSUBROT=      F    optimize rotation matrix (better conditioning)
   TURBO    =      0    0=normal 1=particle mesh
   IRESTART =      0    0=no restart 2=restart with 2 vectors
   NREBOOT  =      0    no. of reboots
   NMIN     =      0    reboot dimension
   EREF     =   0.00    reference energy to select bands
   IMIX   =      4    mixing-type and parameters
     AMIX     =   0.40;   BMIX     =  1.00
     AMIX_MAG =   1.60;   BMIX_MAG =  1.00
     AMIN     =   0.10
     WC   =   100.;   INIMIX=   1;  MIXPRE=   1;  MAXMIX= -45

 Intra band minimization:
   WEIMIN = 0.0000     energy-eigenvalue tresh-hold
   EBREAK =  0.16E-06  absolut break condition
   DEPER  =   0.30     relativ break condition

   TIME   =   0.20     timestep for ELM

  volume/ion in A,a.u.               =      53.85       363.37
  Fermi-wavevector in a.u.,A,eV,Ry     =   0.700607  1.323955  6.678418  0.490850
  Thomas-Fermi vector in A             =   1.784806

 Write flags
[...]
   41        0.866   1.757   0.000   2.624
   42        0.855   1.708   0.000   2.563
   43        0.863   1.779   0.000   2.642
   44        0.861   1.766   0.000   2.627
   45        0.857   1.736   0.000   2.594
   46        0.852   1.702   0.000   2.555
   47        0.849   1.751   0.000   2.600
   48        0.861   1.765   0.000   2.627
   49        0.864   1.755   0.000   2.619
   50        0.868   1.767   0.000   2.635
   51        0.862   1.768   0.000   2.629
   52        0.863   1.762   0.000   2.625
   53        1.230   2.676   0.000   3.906
   54        1.231   2.698   0.000   3.929
   55        1.231   2.688   0.000   3.919
   56        1.217   2.648   0.000   3.865
   57        1.227   2.673   0.000   3.900
   58        0.421   0.371   6.381   7.172
   59        0.465   0.580   6.377   7.423
tot         51.912 105.953  12.758 170.623

 magnetization (x)

[...]

  FORCE on cell =-STRESS in cart. coord.  units (eV):
  Direction    XX          YY          ZZ          XY          YZ          ZX
  Alpha Z   105.68891   105.68891   105.68891
  Ewald   49189.72028 49158.21625-57670.97713    38.22408     3.90085   -95.80629
  Hartree 48625.79326 48636.05008-47899.24172     5.00365   -19.29790   -73.03444
  E(xc)    -728.92613  -729.13133  -742.98254    -0.14402     0.24048     0.42705
  Local  ************************102411.14020   -34.01953    17.19133   169.82100
  n-local  -172.75539  -173.19291  -168.25142     2.56569     0.14971    -0.36282
  augment    51.03928    52.19529    52.46525     0.90683     0.85588    -0.72127
  Kinetic  3694.51268  3712.80113  4226.30857   -23.01162    -1.95921    -1.54151
  Fock     -339.95296  -341.59892  -313.73501    -1.75958    -1.83153     0.25125
  Total     -44.48108   -36.78469     0.41512   -12.23452    -0.75040    -0.96702
  in kB     -22.43288   -18.55141     0.20935    -6.17016    -0.37844    -0.48769

 VOLUME and BASIS-vectors are now :
  energy-cutoff  :      500.00
  volume of cell :     3176.88
      direct lattice vectors                 reciprocal lattice vectors
    12.810000000  0.000000000  0.000000000     0.078064012  0.000000000  0.000000000
     0.000000000 12.400000000  0.000000000     0.000000000  0.080645161  0.000000000
     0.000000000  0.000000000 20.000000000     0.000000000  0.000000000  0.050000000

  length of vectors
    12.810000000 12.400000000 20.000000000     0.078064012  0.080645161  0.050000000

 FORCES acting on ions:
    Electron-Ion                     Ewald-Force                    Non-Local-Force
   0.601E+01 -.631E+01 0.489E+01   -.607E+01 0.617E+01 -.493E+01   0.136E+00 -.609E-01 0.317E-01
   -.108E+01 -.216E+01 0.552E+01   0.122E+01 0.207E+01 -.555E+01   -.153E+00 0.545E-01 0.161E-01
   0.638E+01 0.535E+00 0.485E+01   -.640E+01 -.663E+00 -.481E+01   -.567E-01 0.781E-01 -.445E-01
   0.140E+02 0.293E+01 -.576E+00   -.143E+02 -.304E+01 0.640E+00   0.294E+00 0.151E+00 -.719E-01
   0.741E+01 0.416E+01 -.652E+01   -.747E+01 -.427E+01 0.646E+01   0.770E-01 0.933E-01 0.546E-01
   0.413E+01 0.479E+01 0.111E+02   -.403E+01 -.510E+01 -.112E+02   -.336E-01 0.295E+00 0.912E-01
   0.500E+01 0.732E+01 0.183E+01   -.503E+01 -.741E+01 -.180E+01   -.126E-01 0.928E-01 -.342E-01
   0.209E+02 0.177E+02 -.173E+02   -.212E+02 -.179E+02 0.172E+02   0.286E+00 0.653E-01 0.134E+00
   0.283E+02 0.464E+02 -.721E+01   -.300E+02 -.492E+02 0.658E+01   0.174E+01 0.306E+01 0.643E+00
   0.157E+02 0.232E+01 0.988E+01   -.160E+02 -.210E+01 -.975E+01   0.235E+00 -.143E+00 -.118E+00
   0.168E+02 0.117E+02 0.114E+02   -.172E+02 -.120E+02 -.115E+02   0.413E+00 0.192E+00 0.106E+00
   0.334E+02 -.350E+02 0.245E+02   -.351E+02 0.383E+02 -.253E+02   0.171E+01 -.301E+01 0.829E+00
   0.121E+02 -.726E+01 0.213E+02   -.123E+02 0.749E+01 -.213E+02   0.223E+00 -.218E+00 0.651E-01
   0.185E+02 -.642E+01 0.216E+02   -.187E+02 0.698E+01 -.217E+02   0.142E+00 -.477E+00 0.148E+00
   0.387E+02 -.112E+02 0.285E+02   -.419E+02 0.111E+02 -.288E+02   0.292E+01 0.491E-01 0.276E+00
   0.187E+02 -.121E+02 0.205E+02   -.189E+02 0.120E+02 -.205E+02   0.237E+00 -.648E-01 0.701E-01
   0.290E+01 -.345E+01 0.110E+02   -.277E+01 0.351E+01 -.111E+02   -.113E+00 0.195E-01 0.381E-01
   0.721E+01 -.648E+01 0.162E+02   -.744E+01 0.630E+01 -.161E+02   0.191E+00 0.113E+00 -.643E-01
   0.149E+02 -.919E+01 0.125E+02   -.153E+02 0.962E+01 -.125E+02   0.258E+00 -.220E+00 0.638E-01
   -.159E+01 -.524E+01 0.147E+02   0.131E+01 0.525E+01 -.147E+02   0.254E+00 -.645E-01 -.397E-01
   0.715E+01 0.513E+01 0.937E+01   -.766E+01 -.555E+01 -.943E+01   0.403E+00 0.396E+00 0.650E-01
   0.529E+01 -.515E+01 0.128E+02   -.513E+01 0.508E+01 -.129E+02   -.989E-01 0.189E-01 0.240E-01
   -.886E+01 0.753E+01 0.189E+02   0.904E+01 -.798E+01 -.190E+02   -.127E+00 0.479E+00 0.642E-01
   -.194E+01 0.189E+02 0.158E+02   0.187E+01 -.195E+02 -.155E+02   0.125E+00 0.642E+00 -.195E+00
   0.392E+02 0.433E+02 -.654E+01   -.416E+02 -.466E+02 0.584E+01   0.237E+01 0.316E+01 0.688E+00
   0.893E+01 0.218E+02 0.124E+02   -.927E+01 -.223E+02 -.125E+02   0.251E+00 0.576E+00 0.181E+00
   -.223E+02 0.307E+02 0.278E+02   0.231E+02 -.319E+02 -.281E+02   -.694E+00 0.102E+01 0.297E+00
   -.336E+02 0.429E+02 0.762E+01   0.358E+02 -.464E+02 -.839E+01   -.228E+01 0.356E+01 0.776E+00
   0.103E+01 -.462E+02 0.177E+02   -.290E+01 0.493E+02 -.178E+02   0.176E+01 -.297E+01 0.791E-01
   0.914E+01 -.202E+02 0.123E+02   -.914E+01 0.205E+02 -.123E+02   0.145E+00 -.275E+00 -.648E-01
   0.768E-02 -.453E+02 0.193E+02   0.128E+01 0.480E+02 -.195E+02   -.112E+01 -.263E+01 0.271E+00
   -.117E+02 -.167E+02 0.155E+02   0.115E+02 0.171E+02 -.155E+02   0.960E-01 -.347E+00 0.517E-01
   -.592E+01 -.239E+01 0.145E+02   0.607E+01 0.234E+01 -.145E+02   -.128E+00 0.424E-01 0.211E-01
   -.888E+01 0.225E+01 0.207E+02   0.891E+01 -.235E+01 -.207E+02   -.111E+00 0.148E+00 0.106E-02
   -.943E+01 0.106E+01 0.178E+02   0.961E+01 -.108E+01 -.178E+02   -.193E+00 -.365E-01 0.444E-01
   -.177E+01 0.409E+01 0.129E+02   0.194E+01 -.424E+01 -.129E+02   -.145E+00 0.115E+00 0.269E-01
   -.863E+01 0.191E+01 0.177E+02   0.888E+01 -.196E+01 -.177E+02   -.236E+00 0.815E-01 0.960E-02
   -.216E+02 0.926E+01 0.272E+02   0.223E+02 -.941E+01 -.274E+02   -.716E+00 0.156E+00 0.204E+00
   -.111E+02 0.950E+01 0.239E+02   0.114E+02 -.978E+01 -.239E+02   -.245E+00 0.289E+00 0.538E-01
   -.286E+01 0.230E+01 0.160E+02   0.294E+01 -.239E+01 -.160E+02   -.122E+00 0.379E-01 0.632E-01
   -.883E+01 0.175E+01 0.132E+02   0.923E+01 -.157E+01 -.132E+02   -.375E+00 -.155E+00 0.651E-02
   -.541E+02 -.115E+02 0.112E+02   0.581E+02 0.121E+02 -.114E+02   -.399E+01 -.544E+00 0.151E+00
   -.239E+02 0.447E+00 0.156E+02   0.245E+02 -.526E+00 -.156E+02   -.482E+00 0.904E-01 -.173E-01
   -.104E+01 -.250E+01 0.940E+01   0.926E+00 0.281E+01 -.940E+01   0.107E+00 -.330E+00 -.160E-01
   -.416E+00 -.201E+01 0.109E+02   0.499E+00 0.225E+01 -.109E+02   0.468E-02 -.145E+00 0.197E-01
   -.495E+02 0.141E+01 0.112E+02   0.529E+02 -.162E+01 -.112E+02   -.361E+01 0.309E+00 0.128E-01
   -.224E+02 -.392E+01 0.105E+02   0.226E+02 0.408E+01 -.106E+02   -.212E+00 -.212E+00 0.382E-01
   -.244E+01 0.370E-01 0.148E+02   0.249E+01 -.198E+00 -.148E+02   -.129E+00 0.996E-01 -.872E-02
   -.555E+01 -.567E+01 0.132E+02   0.580E+01 0.547E+01 -.132E+02   -.292E+00 0.170E+00 0.358E-01
   -.142E+02 -.877E+01 0.151E+02   0.144E+02 0.900E+01 -.151E+02   -.233E+00 -.129E+00 0.364E-01
   -.189E+02 -.138E+01 0.118E+02   0.194E+02 0.147E+01 -.118E+02   -.388E+00 -.117E+00 0.228E-02
   -.190E+01 0.223E+01 0.125E+02   0.202E+01 -.225E+01 -.125E+02   -.111E+00 0.539E-01 0.575E-03
   0.524E+01 0.669E+01 -.296E+02   0.153E+02 -.629E+01 0.313E+02   -.195E+02 -.649E+00 -.192E+01
   0.346E+02 0.222E+02 -.522E+02   -.442E+02 -.531E+01 0.557E+02   0.937E+01 -.159E+02 -.356E+01
   -.483E+02 -.323E+02 0.767E+01   0.388E+02 0.492E+02 -.716E+01   0.914E+01 -.163E+02 -.418E+00
   0.245E+02 0.820E+01 0.400E+02   -.152E+02 -.246E+02 -.410E+02   -.881E+01 0.154E+02 0.985E+00
   -.322E+02 0.132E+02 0.308E+02   0.230E+02 -.291E+02 -.316E+02   0.897E+01 0.151E+02 0.734E+00
   0.404E+02 -.278E+02 -.761E+03   -.433E+02 0.244E+02 0.754E+03   0.157E+01 0.295E+01 0.838E+01
   -.668E+01 -.179E+02 0.105E+03   0.112E+02 0.228E+02 -.105E+03   -.369E+01 -.381E+01 -.145E+01
   0.499E+01 -.136E+00 -.809E+01   0.000E+00 -.995E-13 -.568E-13   -.497E+01 0.293E+00 0.787E+01

 POSITION                                       TOTAL-FORCE (eV/Angst)
      2.84937      0.02938      9.99175         0.080664     -0.211635     -0.009420
      0.73538      1.26833      9.97586        -0.022156     -0.037018     -0.013984
      1.42457      0.01980      9.97427        -0.070738     -0.040612     -0.012822
      3.56308      1.28119     10.03452         0.095200      0.048269     -0.012709
      2.88026      2.54433     10.08271         0.018521     -0.021515     -0.005776
      0.73031      3.75552      9.99640         0.064432     -0.000910      0.022644
      1.44839      2.52117     10.02141        -0.041597      0.017875     -0.008890
      3.60740      3.79883     10.18138         0.055056     -0.149682     -0.010553
      2.85413      5.05180     10.18314         0.097526      0.479186      0.052080
      0.69433      6.24180     10.00414         0.015368      0.060225     -0.000216
      1.42644      5.00684     10.04354         0.000925     -0.111513      0.021560
      2.84166      7.47383     10.07494         0.007453      0.102421      0.034149
      0.68468      8.70144      9.94022         0.067445      0.000072      0.029859
      1.41102      7.47961      9.98840        -0.048132      0.064605      0.070802
      3.60605      8.70173     10.00215        -0.154698     -0.064521     -0.051360
      2.85849      9.92811      9.95877        -0.007606     -0.155842      0.031313
      0.71305     11.17420      9.94425         0.014388      0.073756      0.001791
      1.41977      9.92849      9.94431        -0.028538     -0.059463      0.013666
      3.54944     11.19036      9.96894        -0.090812      0.200047      0.013602
      7.11141      0.01602      9.94128        -0.008510     -0.056589      0.003547
      4.98146      1.25853     10.00900        -0.085753      0.004976      0.006899
      5.69089      0.02343      9.96662         0.061584     -0.049836     -0.010848
      7.84418      1.23066      9.93381         0.040180      0.061135     -0.001847
      7.13690      2.44856      9.98775         0.075269      0.043208      0.004218
      5.05191      3.73309     10.19162         0.147823      0.077201      0.027830
      5.71391      2.47949     10.04545        -0.070991      0.058442      0.036684
      7.87711      3.65407      9.98566         0.065267     -0.074578      0.014268
      7.18389      4.84688     10.12823        -0.188371      0.242066      0.045733
      7.10075      9.97171      9.95347        -0.013213     -0.052712     -0.025999
      4.97471     11.18960      9.96861         0.153057     -0.053035      0.005696
      5.67032      9.95920      9.97179         0.106780     -0.035892      0.063665
      7.81601     11.18861      9.93260        -0.051078      0.074767      0.020413
     11.40025      0.00963      9.91590         0.012544     -0.017885      0.010175
      9.26962      1.23842      9.90594        -0.085467      0.049561      0.013299
      9.97172      0.00240      9.90513        -0.027161     -0.056116      0.013905
     12.12064      1.25261      9.93272         0.023756     -0.020938      0.001265
     11.41544      2.49117      9.92099        -0.002629      0.040488      0.014086
      9.28990      3.69554      9.92932        -0.083522      0.006861      0.046101
      9.99427      2.47042      9.90505        -0.016029      0.025194      0.018634
     12.10949      3.74287      9.94741        -0.040472     -0.046644      0.018850
     11.38211      4.97889      9.95475         0.007256      0.024082      0.005979
      9.18065      6.16477     10.00260        -0.183444      0.003233      0.035254
      9.95424      4.95477      9.95842         0.027841      0.012454     -0.003548
     12.06919      6.23086      9.97133         0.000796     -0.040746     -0.011053
     11.31644      7.45471      9.95641         0.099697      0.094028     -0.016389
      9.15121      8.69986      9.95905        -0.410121      0.115199     -0.011574
      9.85891      7.43947      9.97083        -0.002571     -0.057882     -0.007734
     12.05505      8.68442      9.93624        -0.088676     -0.050673     -0.004607
     11.35415      9.92424      9.92709        -0.051542     -0.029331      0.008949
      9.24234     11.17594      9.91898        -0.038776      0.094511      0.013729
      9.92065      9.92234      9.93349         0.066387     -0.030202      0.007902
     12.09038     11.16333      9.92589        -0.001147      0.039433      0.002093
      3.49088      6.27353     10.30466        -0.609859     -0.300933     -0.296688
      5.83548      4.86386     10.35364         0.554775     -0.400142     -0.353935
      7.79850      6.07624     10.08480         0.422055     -0.859606      0.066301
      5.02010      8.72288     10.00874        -0.230198      0.291619      0.113549
      7.76472      8.75830      9.96008         0.459201      0.393579     -0.020206
      5.13824      6.36496     11.35030        -0.826851     -0.436791      0.802829
      6.44595      7.39444     10.06984         0.739412      0.724750     -0.823158
    total drift:                                0.001266      0.005502      0.007223

  FREE ENERGIE OF THE ION-ELECTRON SYSTEM (eV)
  free  energy   TOTEN  =      -620.72242145 eV

  energy  without entropy=     -620.72120475  energy(sigma->0) =     -620.72181310

 stress matrix after NEB project (eV)
    -44.48108    -12.23259     -0.96702
    -12.23452    -36.78469     -0.74760
     -0.96828     -0.75040      0.41512
  FORCES: max atom, RMS     1.322718    0.341820
  FORCE total and by dimension    2.625568    0.859606
  Stress total and by dimension   60.284048   44.481076
 writing wavefunctions
 vacuum level on the upper side and lower side of the slab         1.321         1.640

 total charge

[...]

 magnetization (x)

# of ion       s       p       d       tot
    1       -0.000  -0.001   0.000  -0.001
    2       -0.000  -0.002   0.000  -0.002
    3        0.000   0.003   0.000   0.003
    4        0.000   0.005   0.000   0.005
    5       -0.001  -0.007   0.000  -0.007
    6       -0.000  -0.002   0.000  -0.002
    7        0.000   0.004   0.000   0.004
    8        0.001   0.010   0.000   0.011
    9        0.000   0.001   0.000   0.002
   10       -0.001  -0.008   0.000  -0.009
   11        0.001   0.004   0.000   0.004
   12       -0.000  -0.007   0.000  -0.008
   13        0.000  -0.000   0.000  -0.000
   14        0.001   0.006   0.000   0.007
   15        0.001  -0.001   0.000  -0.001
   16        0.000   0.001   0.000   0.001
   17       -0.000  -0.005   0.000  -0.005
   18        0.000   0.003   0.000   0.003
   19        0.000   0.001   0.000   0.001
   20       -0.000  -0.001   0.000  -0.001
   21       -0.000  -0.002   0.000  -0.003
   22        0.000   0.002   0.000   0.002
   23        0.000   0.003   0.000   0.003
   24       -0.000  -0.002   0.000  -0.002
   25       -0.001  -0.002   0.000  -0.003
   26        0.000   0.004   0.000   0.004
   27        0.000   0.002   0.000   0.002
   28       -0.001  -0.002   0.000  -0.002
   29        0.000   0.002   0.000   0.002
   30       -0.000  -0.004   0.000  -0.004
   31       -0.000   0.003   0.000   0.002
   32       -0.000   0.001   0.000   0.001
   33       -0.000  -0.003   0.000  -0.004
   34       -0.000  -0.003   0.000  -0.003
   35        0.000   0.003   0.000   0.003
   36        0.000   0.004   0.000   0.004
   37       -0.000  -0.006   0.000  -0.006
   38       -0.000  -0.005   0.000  -0.006
   39        0.000   0.004   0.000   0.005
   40        0.000   0.003   0.000   0.004
   41       -0.000  -0.002   0.000  -0.003
   42       -0.001  -0.009   0.000  -0.010
   43        0.000   0.005   0.000   0.005
   44        0.001   0.006   0.000   0.006
   45       -0.001  -0.007   0.000  -0.007
   46       -0.001  -0.004   0.000  -0.004
   47        0.001   0.005   0.000   0.005
   48        0.000   0.004   0.000   0.004
   49       -0.000  -0.003   0.000  -0.004
   50       -0.000  -0.004   0.000  -0.004
   51       -0.000   0.003   0.000   0.003
   52        0.000   0.004   0.000   0.004
   53        0.005   0.024   0.000   0.029
   54        0.002   0.024   0.000   0.026
   55       -0.002  -0.004   0.000  -0.006
   56       -0.002  -0.011   0.000  -0.013
   57       -0.007  -0.032   0.000  -0.039
   58       -0.003   0.032   2.953   2.981
   59        0.008  -0.012   1.723   1.719
tot          0.002   0.023   4.676   4.700