 vasp.5.4.4.18Apr17-6-g9f103f2a35 (build Feb 25 2019 10:51:38) complex

 executed on             LinuxIFC date 2021.06.15  03:28:51

 INCAR:
 POTCAR:    PAW_PBE C 08Apr2002
 POTCAR:    PAW_PBE N 08Apr2002
 POTCAR:    PAW_PBE Fe 06Sep2000
 POTCAR:    PAW_PBE Mn 06Sep2000

 POTCAR:    PAW_PBE C 08Apr2002
   VRHFIN =C: s2p2

   TITEL  = PAW_PBE C 08Apr2002
   POMASS =   12.011; ZVAL   =    4.000    mass and valenz
   ENMAX  =  400.000; ENMIN  =  300.000 eV

 POTCAR:    PAW_PBE N 08Apr2002
   VRHFIN =N: s2p3

   TITEL  = PAW_PBE N 08Apr2002
   POMASS =   14.001; ZVAL   =    5.000    mass and valenz
   ENMAX  =  400.000; ENMIN  =  300.000 eV

 POTCAR:    PAW_PBE Fe 06Sep2000
   VRHFIN =Fe:  d7 s1

   TITEL  = PAW_PBE Fe 06Sep2000
   POMASS =   55.847; ZVAL   =    8.000    mass and valenz
   ENMAX  =  267.882; ENMIN  =  200.911 eV

 POTCAR:    PAW_PBE Mn 06Sep2000
   VRHFIN =Mn: d6 s1

   TITEL  = PAW_PBE Mn 06Sep2000
   POMASS =   54.938; ZVAL   =    7.000    mass and valenz
   ENMAX  =  269.864; ENMIN  =  202.398 eV

  PAW_PBE C 08Apr2002                   :
  PAW_PBE N 08Apr2002                   :
  PAW_PBE Fe 06Sep2000                  :
  PAW_PBE Mn 06Sep2000                  :

 POSCAR:  C  N Fe Mn
  positions in cartesian coordinates
 exchange correlation table for  LEXCH =        8
   RHO(1)=    0.500       N(1)  =     2000
   RHO(2)=  100.500       N(2)  =     4000

 VTST: version 3.2, (02/03/18)

 CHAIN: initializing optimizer

 OPT: Using VASP Conjugate-Gradient optimizer
 CHAIN: Read ICHAIN            0

 POSCAR:  C  N Fe Mn
  positions in cartesian coordinates

 ion  position               nearest neighbor table
   1  0.222  0.001  0.492-   3 1.43  19 1.43   4 1.44
   2  0.057  0.101  0.487-   3 1.43  37 1.43   7 1.44
   3  0.111  0.001  0.489-   1 1.43   2 1.43  17 1.43
   4  0.278  0.102  0.492-  21 1.42   1 1.44   5 1.44
   5  0.225  0.204  0.495-   7 1.44   4 1.44   8 1.45
   6  0.057  0.301  0.491-   7 1.43  11 1.43  41 1.43
   7  0.113  0.202  0.491-   6 1.43   2 1.44   5 1.44
   8  0.282  0.305  0.504-   5 1.45  25 1.46   9 1.48
   9  0.222  0.406  0.508-  54 1.38  11 1.44   8 1.48
  10  0.053  0.501  0.498-  14 1.42  45 1.43  11 1.44
  11  0.111  0.402  0.498-   6 1.43  10 1.44   9 1.44
  12  0.217  0.601  0.513-  54 1.39  14 1.43  15 1.45
  13  0.052  0.701  0.496-  14 1.43  18 1.43  49 1.43
  14  0.108  0.602  0.501-  10 1.42  12 1.43  13 1.43
  15  0.272  0.704  0.516-  16 1.43  29 1.45  12 1.45
  16  0.219  0.801  0.501-  15 1.43  18 1.43  19 1.44
  17  0.055  0.901  0.489-  18 1.43  53 1.43   3 1.43
  18  0.109  0.801  0.494-  17 1.43  16 1.43  13 1.43
  19  0.276  0.901  0.498-   1 1.43  31 1.44  16 1.44
  20  0.555  0.999  0.488-  23 1.42  33 1.43  22 1.43
  21  0.389  0.100  0.490-   4 1.42  26 1.43  22 1.43
  22  0.444  1.000  0.491-  20 1.43  31 1.43  21 1.43
  23  0.612  0.098  0.484-  24 1.42  20 1.42  35 1.43
  24  0.557  0.196  0.488-  27 1.42  23 1.42  26 1.43
  25  0.395  0.299  0.505-  55 1.39  26 1.43   8 1.46
  26  0.446  0.199  0.492-  21 1.43  24 1.43  25 1.43
  27  0.614  0.294  0.492-  28 1.41  24 1.42  39 1.42
  28  0.562  0.388  0.511-  56 1.37  55 1.38  27 1.41
  29  0.379  0.713  0.537-  57 1.34  15 1.45  32 1.45
  30  0.556  0.802  0.510-  58 1.39  33 1.43  32 1.45
  31  0.388  0.901  0.500-  22 1.43  32 1.43  19 1.44
  32  0.443  0.804  0.515-  31 1.43  30 1.45  29 1.45
  33  0.610  0.900  0.494-  30 1.43  20 1.43  51 1.43
  34  0.889  1.000  0.484-  53 1.43  36 1.43  37 1.44
  35  0.723  0.098  0.482-  36 1.43  40 1.43  23 1.43
  36  0.778  0.999  0.484-  35 1.43  51 1.43  34 1.43
  37  0.946  0.100  0.484-  38 1.43   2 1.43  34 1.44
  38  0.891  0.199  0.484-  37 1.43  40 1.43  41 1.43
  39  0.725  0.296  0.488-  40 1.42  27 1.42  44 1.43
  40  0.780  0.198  0.483-  39 1.42  35 1.43  38 1.43
  41  0.946  0.300  0.487-  38 1.43   6 1.43  42 1.43
  42  0.889  0.399  0.491-  45 1.42  44 1.42  41 1.43
  43  0.721  0.493  0.506-  56 1.38  44 1.43  48 1.45
  44  0.779  0.397  0.493-  42 1.42  39 1.43  43 1.43
  45  0.942  0.500  0.495-  42 1.42  10 1.43  46 1.44
  46  0.884  0.599  0.498-  49 1.44  45 1.44  48 1.45
  47  0.718  0.702  0.506-  58 1.38  52 1.43  48 1.47
  48  0.771  0.598  0.505-  46 1.45  43 1.45  47 1.47
  49  0.941  0.699  0.495-  50 1.43  13 1.43  46 1.44
  50  0.887  0.799  0.491-  49 1.43  52 1.43  53 1.44
  51  0.721  0.899  0.490-  36 1.43  52 1.43  33 1.43
  52  0.776  0.799  0.494-  50 1.43  51 1.43  47 1.43
  53  0.943  0.900  0.487-  34 1.43  17 1.43  50 1.44
  54  0.268  0.504  0.522-   9 1.38  12 1.39  59 1.89
  55  0.456  0.387  0.523-  28 1.38  25 1.39  59 1.87
  56  0.616  0.482  0.522-  28 1.37  43 1.38  60 1.96
  57  0.414  0.640  0.581-  29 1.34  59 1.80  60 1.85
  58  0.612  0.709  0.520-  47 1.38  30 1.39  60 1.97
  59  0.392  0.497  0.572-  57 1.80  55 1.87  54 1.89  60 2.37
  60  0.551  0.594  0.576-  57 1.85  56 1.96  58 1.97  59 2.37

  LATTYP: Found a triclinic cell.
 ALAT       =    17.7822263089
 B/A-ratio  =     0.6971118118
 C/A-ratio  =     1.1205852211
 COS(alpha) =     0.0012060222
 COS(beta)  =     0.0066200196
 COS(gamma) =     0.6905523787

  Lattice vectors:

 A1 = (  12.7496837402,  12.3956902601,   0.0000000000)
 A2 = (  -0.1124162598,  12.3956902601,   0.0000000000)
 A3 = (   0.1592133786,   0.0254766929,  19.9258476429)

Analysis of symmetry for initial positions (statically):
 Subroutine PRICEL returns:
 Original cell was already a primitive cell.

 Routine SETGRP: Setting up the symmetry group for a
 triclinic supercell.

 Subroutine GETGRP returns: Found  1 space group operations
 (whereof  1 operations were pure point group operations)
 out of a pool of  2 trial point group operations.

The static configuration has the point symmetry C_1 .

Analysis of symmetry for dynamics (positions and initial velocities):
 Subroutine PRICEL returns:
 Original cell was already a primitive cell.

[...]

The dynamic configuration has the point symmetry C_1 .

Analysis of structural, dynamic, and magnetic symmetry:
 Subroutine PRICEL returns:
 Original cell was already a primitive cell.

 Routine SETGRP: Setting up the symmetry group for a
 triclinic supercell.

 Subroutine GETGRP returns: Found  1 space group operations
 (whereof  1 operations were pure point group operations)
 out of a pool of  2 trial point group operations.

The magnetic configuration has the point symmetry C_1 .

 Subroutine INISYM returns: Found  1 space group operations
 (whereof  1 operations are pure point group operations),
 and found     1 'primitive' translations

 KPOINTS: KPOINTS created by Atomic Simulation Env

Automatic generation of k-mesh.
Space group operators:
 irot       det(A)        alpha          n_x          n_y          n_z        tau_x        tau_y        tau_z
    1     1.000000     0.000000     1.000000     0.000000     0.000000     0.000000     0.000000     0.000000

 Subroutine IBZKPT returns following result:

 Found      2 irreducible k-points:

 Following reciprocal coordinates:
            Coordinates               Weight
  0.250000  0.250000  0.000000      2.000000
 -0.250000  0.250000  0.000000      2.000000

 Following cartesian coordinates:
            Coordinates               Weight
  0.019437  0.020345 -0.000181      2.000000
 -0.019437  0.019992  0.000130      2.000000

 Subroutine IBZKPT_HF returns following result:

 Found      4 k-points in 1st BZ
 the following      4 k-points will be used (e.g. in the exchange kernel)
 Following reciprocal coordinates:   # in IRBZ
  0.250000  0.250000  0.000000    0.25000000   1 t-inv F
 -0.250000  0.250000  0.000000    0.25000000   2 t-inv F
 -0.250000 -0.250000  0.000000    0.25000000   1 t-inv T
  0.250000 -0.250000 -0.000000    0.25000000   2 t-inv T

 SYSTEM =  unknown system
 POSCAR =   C  N Fe Mn

 Startparameter for this run:
   NWRITE =      2    write-flag & timer
   PREC   = accura    normal or accurate (medium, high low for compatibility)
   ISTART =      0    job   : 0-new  1-cont  2-samecut
   ICHARG =      2    charge: 1-file 2-atom 10-const
   ISPIN  =      2    spin polarized calculation?
   LNONCOLLINEAR =      F non collinear calculations
   LSORBIT =      F    spin-orbit coupling
   INIWAV =      1    electr: 0-lowe 1-rand  2-diag
   LASPH  =      T    aspherical Exc in radial PAW
   METAGGA=      F    non-selfconsistent MetaGGA calc.

 Electronic Relaxation 1
   ENCUT  =  500.0 eV  36.75 Ry    6.06 a.u.  23.45 22.60 36.33*2*pi/ulx,y,z
   ENINI  =  500.0     initial cutoff
   ENAUG  =  644.9 eV  augmentation charge cutoff
   NELM   =    250;   NELMIN=  2; NELMDL=  0     # of ELM steps
   EDIFF  = 0.1E-03   stopping-criterion for ELM
   LREAL  =      F    real-space projection
   NLSPLINE    = F    spline interpolate recip. space projectors
   LCOMPAT=      F    compatible to vasp.4.4
   GGA_COMPAT  = T    GGA compatible to vasp.4.4-vasp.4.6
   LMAXPAW     = -100 max onsite density
   LMAXMIX     =    2 max onsite mixed and CHGCAR
   VOSKOWN=      0    Vosko Wilk Nusair interpolation
   ROPT   =    0.00000   0.00000   0.00000   0.00000
 Ionic relaxation
   EDIFFG = -.3E-01   stopping-criterion for IOM
   NSW    =      0    number of steps for IOM
   NBLOCK =      1;   KBLOCK =      1    inner block; outer block
   IBRION =     -1    ionic relax: 0-MD 1-quasi-New 2-CG
   NFREE  =      1    steps in history (QN), initial steepest desc. (CG)
   ISIF   =      2    stress and relaxation
   IWAVPR =     10    prediction:  0-non 1-charg 2-wave 3-comb
   ISYM   =      3    0-nonsym 1-usesym 2-fastsym
   LCORR  =      T    Harris-Foulkes like correction to forces

   POTIM  = 0.5000    time-step for ionic-motion
   TEIN   =    0.0    initial temperature
   TEBEG  =    0.0;   TEEND  =   0.0 temperature during run
   SMASS  =  -3.00    Nose mass-parameter (am)
   estimated Nose-frequenzy (Omega)   =  0.10E-29 period in steps =****** mass=  -0.378E-26a.u.
   SCALEE = 1.0000    scale energy and forces
   NPACO  =    256;   APACO  = 16.0  distance and # of slots for P.C.
   PSTRESS=    0.0 pullay stress

  Mass of Ions in am
   POMASS =  12.01 14.00 55.85 54.94
  Ionic Valenz
   ZVAL   =   4.00  5.00  8.00  7.00
  Atomic Wigner-Seitz radii
  virtual crystal weights
   VCA    =   1.00  1.00  1.00  1.00
   NELECT =     252.0000    total number of electrons
   NUPDOWN=      -1.0000    fix difference up-down

 DOS related values:
   EMIN   =  10.00;   EMAX   =-10.00  energy-range for DOS
   EFERMI =   0.00
   ISMEAR =     0;   SIGMA  =   0.10  broadening in eV -4-tet -1-fermi 0-gaus

 Electronic relaxation 2 (details)
   IALGO  =     53    algorithm
   LDIAG  =      T    sub-space diagonalisation (order eigenvalues)
   LSUBROT=      F    optimize rotation matrix (better conditioning)
   TURBO    =      0    0=normal 1=particle mesh
   IRESTART =      0    0=no restart 2=restart with 2 vectors
   NREBOOT  =      0    no. of reboots
   NMIN     =      0    reboot dimension
   EREF     =   0.00    reference energy to select bands
   IMIX   =      4    mixing-type and parameters
     AMIX     =   0.40;   BMIX     =  1.00
     AMIX_MAG =   1.60;   BMIX_MAG =  1.00
     AMIN     =   0.10
     WC   =   100.;   INIMIX=   1;  MIXPRE=   1;  MAXMIX= -45

[...]
   46        0.859   1.733   0.000   2.592
   47        0.851   1.700   0.000   2.552
   48        0.845   1.737   0.000   2.582
   49        0.862   1.764   0.000   2.625
   50        0.864   1.760   0.000   2.623
   51        0.866   1.756   0.000   2.622
   52        0.863   1.769   0.000   2.632
   53        0.864   1.763   0.000   2.627
   54        1.228   2.677   0.000   3.905
   55        1.229   2.699   0.000   3.927
   56        1.229   2.709   0.000   3.939
   57        1.257   2.598   0.000   3.855
   58        1.227   2.686   0.000   3.913
   59        0.486   0.621   6.361   7.468
   60        0.347   0.421   5.009   5.778
tot         52.685 107.440  11.371 171.495

 magnetization (x)

[...]

  FORCE on cell =-STRESS in cart. coord.  units (eV):
  Direction    XX          YY          ZZ          XY          YZ          ZX
  Alpha Z   107.99479   107.99479   107.99479
  Ewald   48534.02398 48377.21373-56448.95176    38.06342    71.48633    25.76604
  Hartree 48081.28227 47979.84591-46946.18264    22.64025    79.64176    -1.32211
  E(xc)    -735.86248  -736.09695  -748.71025    -0.30262    -0.11535     0.20961
  Local  -99327.35529-99076.93188100210.16299   -61.05150  -155.29816   -18.96960
  n-local  -173.33836  -174.94798  -169.65524     0.59986    -0.41245    -1.46232
  augment    44.75081    46.51428    46.56742     3.02543    -0.32917    -0.40057
  Kinetic  3758.04629  3769.31522  4256.59399     0.06891     5.16858    -3.14339
  Fock     -333.47707  -334.08944  -310.09260    -3.57655     1.21397    -0.79645
  Total     -43.93508   -41.18230    -2.27331    -0.53281     1.35549    -0.11880
  in kB     -22.15759   -20.76930    -1.14649    -0.26871     0.68361    -0.05991

 VOLUME and BASIS-vectors are now :
  energy-cutoff  :      500.00
  volume of cell :     3176.87
      direct lattice vectors                 reciprocal lattice vectors
    12.862100000  0.000000000  0.000000000     0.077747802  0.000705093 -0.000622129
    -0.112416260 12.395690260  0.000000000     0.000000000  0.080673200 -0.000103147
     0.159213379  0.025476693 19.925847643     0.000000000  0.000000000  0.050186071

  length of vectors
    12.862100000 12.396200000 19.926500000     0.077753488  0.080673266  0.050186071

 FORCES acting on ions:
    Electron-Ion                     Ewald-Force                    Non-Local-Force
   0.469E+01 -.343E+01 0.331E+02   -.477E+01 0.326E+01 -.332E+02   0.197E-01 0.134E+00 0.828E-01
   -.134E+00 -.119E+01 0.405E+02   0.359E+00 0.107E+01 -.405E+02   -.190E+00 0.737E-01 0.642E-01
   0.405E+01 -.121E+01 0.358E+02   -.396E+01 0.123E+01 -.357E+02   -.439E-01 0.254E-01 -.988E-01
   0.123E+02 0.674E+00 0.328E+02   -.126E+02 -.759E+00 -.326E+02   0.246E+00 0.169E+00 -.183E+00
   0.706E+01 0.419E+01 0.243E+02   -.718E+01 -.443E+01 -.244E+02   0.259E-01 0.356E-01 0.951E-01
   0.249E+01 0.594E+01 0.370E+02   -.248E+01 -.635E+01 -.371E+02   -.305E-01 0.389E+00 0.914E-01
   0.191E+01 0.596E+01 0.321E+02   -.191E+01 -.610E+01 -.320E+02   0.364E-01 0.146E+00 -.307E-01
   0.174E+02 0.135E+02 0.740E+01   -.175E+02 -.137E+02 -.747E+01   0.207E+00 0.234E+00 0.200E-01
   0.231E+02 0.493E+02 0.154E+02   -.250E+02 -.525E+02 -.165E+02   0.164E+01 0.304E+01 0.105E+01
   0.136E+02 0.521E+01 0.236E+02   -.138E+02 -.514E+01 -.236E+02   0.245E+00 -.561E-01 -.441E-01
   0.133E+02 0.119E+02 0.289E+02   -.137E+02 -.123E+02 -.290E+02   0.417E+00 0.327E+00 0.112E+00
   0.287E+02 -.347E+02 0.159E+01   -.303E+02 0.382E+02 -.210E+01   0.161E+01 -.341E+01 0.573E+00
   0.805E+01 -.566E+01 0.301E+02   -.812E+01 0.598E+01 -.301E+02   0.802E-01 -.286E+00 -.309E-01
   0.169E+02 -.878E+01 0.244E+02   -.173E+02 0.923E+01 -.245E+02   0.344E+00 -.376E+00 0.183E+00
   0.179E+02 -.143E+02 -.198E+01   -.175E+02 0.144E+02 0.189E+01   -.416E+00 -.120E+00 0.309E-01
   0.946E+01 -.117E+02 0.314E+02   -.942E+01 0.118E+02 -.316E+02   -.124E-01 -.728E-01 0.270E+00
   0.209E+01 -.455E+01 0.415E+02   -.192E+01 0.463E+01 -.415E+02   -.143E+00 -.113E+00 0.635E-01
   0.640E+01 -.563E+01 0.383E+02   -.647E+01 0.574E+01 -.383E+02   0.677E-01 -.768E-01 0.738E-01
   0.712E+01 -.722E+01 0.258E+02   -.732E+01 0.736E+01 -.255E+02   0.126E+00 -.131E+00 -.336E+00
   0.145E+00 0.120E+01 0.596E+02   -.510E+00 -.118E+01 -.594E+02   0.313E+00 -.572E-01 -.814E-01
   0.621E+01 0.709E+01 0.540E+02   -.667E+01 -.748E+01 -.541E+02   0.468E+00 0.369E+00 0.110E+00
   0.419E+01 -.128E+01 0.548E+02   -.435E+01 0.120E+01 -.549E+02   0.132E+00 0.872E-01 0.904E-01
   -.581E+01 0.666E+01 0.729E+02   0.585E+01 -.695E+01 -.730E+02   -.148E+00 0.356E+00 0.169E+00
   -.255E+00 0.158E+02 0.706E+02   0.140E+00 -.164E+02 -.705E+02   0.157E+00 0.588E+00 -.639E-01
   0.363E+02 0.368E+02 0.272E+02   -.386E+02 -.401E+02 -.284E+02   0.218E+01 0.296E+01 0.122E+01
   0.853E+01 0.151E+02 0.601E+02   -.892E+01 -.156E+02 -.602E+02   0.253E+00 0.516E+00 0.223E+00
   -.140E+02 0.177E+02 0.764E+02   0.145E+02 -.186E+02 -.771E+02   -.531E+00 0.967E+00 0.744E+00
   -.188E+02 0.271E+02 0.221E+02   0.206E+02 -.304E+02 -.239E+02   -.169E+01 0.329E+01 0.188E+01
   0.223E+02 -.626E+02 -.677E+02   -.232E+02 0.641E+02 0.663E+02   0.908E+00 -.172E+01 0.187E+01
   0.186E+02 -.302E+02 0.354E+01   -.208E+02 0.333E+02 -.408E+01   0.214E+01 -.310E+01 0.556E+00
   0.553E+01 -.651E+01 0.318E+02   -.571E+01 0.635E+01 -.320E+02   0.172E+00 0.137E+00 0.193E+00
   -.326E+01 -.156E+02 -.885E+01   0.309E+01 0.154E+02 0.874E+01   0.200E+00 0.349E+00 0.704E-01
   -.369E+01 -.107E+02 0.476E+02   0.351E+01 0.111E+02 -.478E+02   0.616E-01 -.331E+00 0.293E+00
   -.431E+01 -.220E+01 0.514E+02   0.454E+01 0.219E+01 -.514E+02   -.131E+00 0.338E-02 -.453E-02
   -.611E+01 0.342E+01 0.666E+02   0.626E+01 -.353E+01 -.664E+02   -.795E-01 0.937E-01 -.578E-01
   -.720E+01 0.594E+00 0.584E+02   0.744E+01 -.536E+00 -.585E+02   -.299E+00 -.626E-01 0.128E+00
   -.345E+01 0.314E+01 0.504E+02   0.362E+01 -.321E+01 -.504E+02   -.199E+00 0.856E-01 0.599E-01
   -.613E+01 0.252E+01 0.539E+02   0.644E+01 -.262E+01 -.539E+02   -.215E+00 0.771E-01 -.233E-01
   -.160E+02 0.811E+01 0.624E+02   0.166E+02 -.836E+01 -.623E+02   -.527E+00 0.243E+00 -.110E+00
   -.101E+02 0.696E+01 0.663E+02   0.104E+02 -.720E+01 -.665E+02   -.325E+00 0.253E+00 0.151E+00
   -.366E+01 0.313E+01 0.464E+02   0.382E+01 -.321E+01 -.465E+02   -.143E+00 0.981E-01 0.596E-01
   -.843E+01 0.368E+01 0.425E+02   0.897E+01 -.369E+01 -.426E+02   -.453E+00 -.440E-01 0.946E-01
   -.474E+02 -.160E+02 0.140E+02   0.516E+02 0.163E+02 -.151E+02   -.382E+01 -.445E+00 0.107E+01
   -.192E+02 0.155E+01 0.482E+02   0.197E+02 -.164E+01 -.483E+02   -.622E+00 0.137E+00 0.228E+00
   -.496E+00 -.401E+01 0.257E+02   0.348E+00 0.411E+01 -.256E+02   0.139E+00 -.104E+00 -.554E-01
   -.115E+01 -.165E+01 0.170E+02   0.126E+01 0.180E+01 -.171E+02   -.222E-01 -.968E-01 0.502E-01
   -.437E+02 0.792E+01 0.124E+02   0.474E+02 -.788E+01 -.134E+02   -.349E+01 0.505E-01 0.100E+01
   -.134E+02 -.648E+01 0.152E+01   0.136E+02 0.670E+01 -.169E+01   -.205E+00 -.174E+00 0.134E+00
   -.190E+00 -.129E+01 0.271E+02   0.335E+00 0.132E+01 -.271E+02   -.141E+00 0.142E-02 -.466E-01
   -.491E+01 -.361E+01 0.390E+02   0.535E+01 0.354E+01 -.391E+02   -.396E+00 0.393E-01 0.800E-01
   -.877E+01 -.675E+01 0.461E+02   0.899E+01 0.700E+01 -.460E+02   -.138E+00 -.218E+00 -.924E-01
   -.153E+02 -.439E+01 0.379E+02   0.158E+02 0.450E+01 -.380E+02   -.514E+00 -.151E+00 0.150E+00
   -.162E+01 -.570E+00 0.449E+02   0.174E+01 0.657E+00 -.449E+02   -.138E+00 -.510E-01 0.409E-01
   0.782E+01 0.469E+01 -.240E+02   0.102E+02 -.356E+01 0.273E+02   -.175E+02 -.994E+00 -.353E+01
   0.166E+02 0.129E+02 -.493E+02   -.252E+02 0.214E+01 0.553E+02   0.841E+01 -.147E+02 -.604E+01
   -.146E+02 -.367E+02 -.585E+02   0.502E+01 0.526E+02 0.640E+02   0.900E+01 -.152E+02 -.535E+01
   0.288E+02 -.846E+02 -.457E+03   -.273E+02 0.791E+02 0.475E+03   -.138E+01 0.633E+01 -.167E+02
   0.418E+01 0.192E+02 -.376E+02   -.142E+02 -.355E+02 0.415E+02   0.943E+01 0.155E+02 -.379E+01
   0.586E+02 0.120E+03 -.613E+03   -.597E+02 -.117E+03 0.606E+03   0.450E+00 -.366E+01 0.691E+01
   -.142E+03 -.186E+02 -.566E+03   0.139E+03 0.196E+02 0.559E+03   0.403E+01 -.652E+00 0.672E+01
   -.103E+02 0.978E+01 0.119E+02   0.142E-12 -.632E-12 0.341E-12   0.954E+01 -.938E+01 -.964E+01

 POSITION                                       TOTAL-FORCE (eV/Angst)
      2.93457      0.02931      9.80423        -0.061403     -0.031666      0.010529
      0.80292      1.26836      9.70208         0.023086     -0.046562      0.027897
      1.50624      0.02335      9.74271         0.049960      0.051130      0.000632
      3.64343      1.28017      9.80716        -0.036119      0.089623      0.024040
      2.94919      2.54493      9.86476        -0.103108     -0.209209      0.000701
      0.77746      3.74726      9.78676        -0.021343     -0.005645      0.023602
      1.51111      2.51908      9.77755         0.033924      0.018320      0.035344
      3.66809      3.79254     10.04350         0.110127      0.127294     -0.050164
      2.88621      5.04326     10.11769        -0.127656      0.049897      0.037135
      0.70959      6.22658      9.92211         0.056342      0.015438      0.025522
      1.46035      4.99933      9.92182         0.111891     -0.061991      0.043608
      2.81023      7.46789     10.22739         0.068568     -0.137608      0.099653
      0.67504      8.69634      9.88278         0.016253      0.017878      0.014341
      1.40110      7.46947      9.98847         0.008305      0.051440      0.033103
      3.50572      8.73524     10.27720        -0.107508     -0.028301     -0.055311
      2.80987      9.94438      9.97748         0.031906      0.078728      0.059347
      0.67935     11.17628      9.74362         0.021505     -0.044690      0.023185
      1.38536      9.93880      9.84470         0.000852      0.023033      0.035270
      3.53289     11.18724      9.91419        -0.066719     -0.003015     -0.009076
      7.10033     12.39239      9.72776        -0.034142     -0.039807      0.070350
      5.06529      1.25079      9.76463         0.032292      0.001500      0.037714
      5.67373     12.40731      9.78081        -0.019417      0.011869      0.022373
      7.93385      1.22106      9.63718        -0.119256      0.084641      0.057360
      7.21611      2.44430      9.71391         0.056032     -0.041265      0.079174
      5.12376      3.71628     10.06677         0.024049     -0.127077      0.119579
      5.79033      2.47718      9.80470        -0.132079      0.017519      0.125555
      7.94535      3.65484      9.79627        -0.018109      0.091227      0.086334
      7.26103      4.82539     10.17410         0.002571      0.111467      0.179220
      4.88155      8.85136     10.70553         0.078458     -0.401055      0.571061
      7.13663      9.96002     10.16458         0.121431     -0.100707      0.044219
      4.96944     11.17793      9.95684         0.007476     -0.010311      0.064845
      5.68719      9.97671     10.26323         0.026816      0.178271     -0.036129
      7.82324     11.16840      9.84552        -0.119475     -0.016066      0.051927
     11.40280     12.40216      9.64054         0.088949     -0.006815      0.028417
      9.36395      1.22935      9.60411         0.068244     -0.004202      0.060261
      9.96997     12.39224      9.63888        -0.072904     -0.006280      0.046271
     12.23267      1.25192      9.63762        -0.032214      0.020896      0.038186
     11.51170      2.48448      9.63603         0.088896     -0.027786      0.027303
      9.36398      3.68722      9.72266         0.036194     -0.000295      0.050091
     10.08169      2.46573      9.61696        -0.067083      0.030825      0.049693
     12.20791      3.73377      9.71298         0.007486      0.013851      0.014076
     11.47160      4.96263      9.78223         0.067302     -0.043713      0.021205
      9.29239      6.12248     10.09066         0.095792     -0.168331     -0.011850
     10.04803      4.93610      9.82923        -0.082551      0.054372      0.083803
     12.13965      6.21662      9.86887        -0.002065     -0.012874      0.016674
     11.38095      7.44156      9.92232         0.090510      0.049322      0.014171
      9.23107      8.71378     10.08830         0.001820      0.107960      0.013494
      9.93547      7.42716     10.05974        -0.008935      0.031686     -0.029807
     12.10313      8.68074      9.85581        -0.003889      0.031542      0.007761
     11.39624      9.92121      9.78411         0.030849     -0.030214      0.022445
      9.25387     11.16187      9.76466         0.071860      0.019345      0.044603
      9.96639      9.92278      9.85286        -0.057559     -0.045083      0.071865
     12.11042     11.16341      9.70362        -0.023253      0.035868      0.026024
      3.47843      6.26385     10.39530        -1.006782      0.044617     -0.572957
      5.90298      4.81483     10.41430         0.502111     -0.934673     -0.597905
      7.95424      5.98653     10.40391         0.192949     -0.677477     -0.272579
      5.34550      7.94625     11.58166        -0.073028      1.396444     -0.590993
      7.87590      8.80312     10.35728         0.191057      0.470354     -0.156914
      5.07316      6.17163     11.40201        -0.088297     -0.364898      0.102851
      7.10801      7.37922     11.48617         0.069034      0.301262     -0.359131
    total drift:                                0.006077      0.006551     -0.007132

  FREE ENERGIE OF THE ION-ELECTRON SYSTEM (eV)
  free  energy   TOTEN  =      -632.81107088 eV

  energy  without entropy=     -632.80836727  energy(sigma->0) =     -632.80971908

 stress matrix after NEB project (eV)
    -43.93508     -0.53111     -0.11880
     -0.53281    -41.18230      1.35236
     -0.11651      1.35549     -2.27331
  FORCES: max atom, RMS     1.518111    0.353465
  FORCE total and by dimension    2.737924    1.396444
  Stress total and by dimension   60.296773   43.935077
 writing wavefunctions

 total charge

[...]

 magnetization (x)

# of ion       s       p       d       tot
    1       -0.002  -0.026   0.000  -0.028
    2       -0.002  -0.027   0.000  -0.029
    3        0.002   0.016   0.000   0.018
    4        0.001   0.015   0.000   0.017
    5       -0.002  -0.021   0.000  -0.023
    6       -0.003  -0.036   0.000  -0.039
    7        0.002   0.022   0.000   0.024
    8        0.003   0.021   0.000   0.024
    9       -0.002  -0.039   0.000  -0.041
   10       -0.002  -0.022   0.000  -0.024
   11        0.002   0.022   0.000   0.025
   12       -0.002  -0.023   0.000  -0.025
   13       -0.003  -0.036   0.000  -0.038
   14        0.001   0.016   0.000   0.017
   15        0.001   0.009   0.000   0.010
   16       -0.002  -0.021   0.000  -0.022
   17       -0.002  -0.023   0.000  -0.024
   18        0.002   0.015   0.000   0.017
   19        0.002   0.018   0.000   0.019
   20       -0.001  -0.020   0.000  -0.022
   21       -0.001  -0.017   0.000  -0.018
   22        0.001   0.004   0.000   0.005
   23        0.001   0.012   0.000   0.014
   24       -0.001  -0.017   0.000  -0.018
   25       -0.001  -0.035   0.000  -0.036
   26        0.002   0.011   0.000   0.012
   27        0.000   0.003   0.000   0.003
   28       -0.000  -0.007   0.000  -0.007
   29        0.001  -0.007   0.000  -0.007
   30       -0.000  -0.013   0.000  -0.014
   31       -0.001  -0.013   0.000  -0.014
   32        0.000   0.009   0.000   0.009
   33        0.001   0.009   0.000   0.010
   34       -0.003  -0.035   0.000  -0.037
   35       -0.001  -0.018   0.000  -0.020
   36        0.001   0.012   0.000   0.014
   37        0.002   0.019   0.000   0.021
   38       -0.002  -0.028   0.000  -0.030
   39       -0.002  -0.023   0.000  -0.024
   40        0.001   0.014   0.000   0.015
   41        0.002   0.017   0.000   0.019
   42       -0.002  -0.034   0.000  -0.036
   43       -0.001  -0.027   0.000  -0.027
   44        0.002   0.015   0.000   0.017
   45        0.002   0.019   0.000   0.021
   46       -0.002  -0.027   0.000  -0.029
   47       -0.002  -0.034   0.000  -0.036
   48        0.003   0.019   0.000   0.021
   49        0.002   0.020   0.000   0.022
   50       -0.002  -0.028   0.000  -0.030
   51       -0.002  -0.021   0.000  -0.023
   52        0.002   0.021   0.000   0.023
   53        0.002   0.018   0.000   0.020
   54       -0.001   0.012   0.000   0.011
   55        0.000  -0.003   0.000  -0.003
   56       -0.002  -0.011   0.000  -0.013
   57       -0.012  -0.156   0.000  -0.168
   58        0.001  -0.002   0.000  -0.001
   59        0.012   0.065   2.274   2.351
   60        0.051   0.071   3.759   3.882
tot          0.046  -0.326   6.033   5.753