 vasp.5.4.4.18Apr17-6-g9f103f2a35 (build Feb 25 2019 10:51:38) complex

 executed on             LinuxIFC date 2022.01.27  14:49:56

 INCAR:
 POTCAR:    PAW_PBE C 08Apr2002
 POTCAR:    PAW_PBE N 08Apr2002
 POTCAR:    PAW_PBE Fe 06Sep2000
 POTCAR:    PAW_PBE Zn 06Sep2000

 POTCAR:    PAW_PBE C 08Apr2002
   VRHFIN =C: s2p2

   TITEL  = PAW_PBE C 08Apr2002
   POMASS =   12.011; ZVAL   =    4.000    mass and valenz
   ENMAX  =  400.000; ENMIN  =  300.000 eV

 POTCAR:    PAW_PBE N 08Apr2002
   VRHFIN =N: s2p3

   TITEL  = PAW_PBE N 08Apr2002
   POMASS =   14.001; ZVAL   =    5.000    mass and valenz
   ENMAX  =  400.000; ENMIN  =  300.000 eV

 POTCAR:    PAW_PBE Fe 06Sep2000
   VRHFIN =Fe:  d7 s1

   TITEL  = PAW_PBE Fe 06Sep2000
   POMASS =   55.847; ZVAL   =    8.000    mass and valenz
   ENMAX  =  267.882; ENMIN  =  200.911 eV

 POTCAR:    PAW_PBE Zn 06Sep2000
   VRHFIN =Zn: d10 p2

   TITEL  = PAW_PBE Zn 06Sep2000
   POMASS =   65.390; ZVAL   =   12.000    mass and valenz
   ENMAX  =  276.723; ENMIN  =  207.542 eV

  PAW_PBE C 08Apr2002                   :
  PAW_PBE N 08Apr2002                   :
  PAW_PBE Fe 06Sep2000                  :
  PAW_PBE Zn 06Sep2000                  :

 POSCAR:  C  N Fe Zn
  positions in cartesian coordinates
 exchange correlation table for  LEXCH =        8
   RHO(1)=    0.500       N(1)  =     2000
   RHO(2)=  100.500       N(2)  =     4000

 VTST: version 3.2, (02/03/18)

 CHAIN: initializing optimizer

 OPT: Using VASP Conjugate-Gradient optimizer
 CHAIN: Read ICHAIN            0

 POSCAR:  C  N Fe Zn
  positions in cartesian coordinates

 ion  position               nearest neighbor table
   1  0.222  0.000  0.502-   3 1.43   4 1.43  19 1.43
   2  0.055  0.101  0.501-   3 1.43   7 1.44  33 1.44
   3  0.110  0.000  0.501-   1 1.43  17 1.43   2 1.43
   4  0.277  0.101  0.502-  21 1.43   1 1.43   5 1.43
   5  0.223  0.202  0.501-   4 1.43   7 1.44   8 1.44
   6  0.055  0.301  0.500-   7 1.43  11 1.43  37 1.44
   7  0.111  0.202  0.501-   6 1.43   2 1.44   5 1.44
   8  0.282  0.301  0.500-  50 1.38   5 1.44   9 1.47
   9  0.225  0.405  0.500-  49 1.36  11 1.45   8 1.47
  10  0.056  0.500  0.500-  11 1.43  14 1.43  40 1.45
  11  0.112  0.401  0.500-  10 1.43   6 1.43   9 1.45
  12  0.226  0.596  0.500-  49 1.36  14 1.45  15 1.48
  13  0.055  0.699  0.500-  18 1.43  14 1.43  44 1.44
  14  0.112  0.600  0.500-  10 1.43  13 1.43  12 1.45
  15  0.283  0.700  0.501-  52 1.38  16 1.44  12 1.48
  16  0.223  0.799  0.501-  19 1.43  18 1.44  15 1.44
  17  0.055  0.900  0.501-   3 1.43  48 1.44  18 1.44
  18  0.111  0.799  0.501-  13 1.43  17 1.44  16 1.44
  19  0.277  0.900  0.502-  27 1.43   1 1.43  16 1.43
  20  0.555  0.001  0.504-  22 1.42  23 1.42  29 1.43
  21  0.388  0.100  0.502-  22 1.42  25 1.43   4 1.43
  22  0.444  0.001  0.504-  20 1.42  21 1.42  27 1.43
  23  0.610  0.100  0.502-  20 1.42  24 1.43  31 1.43
  24  0.556  0.201  0.501-  51 1.38  23 1.43  25 1.46
  25  0.442  0.201  0.501-  50 1.38  21 1.43  24 1.46
  26  0.556  0.800  0.503-  53 1.37  29 1.42  28 1.46
  27  0.388  0.901  0.503-  28 1.42  22 1.43  19 1.43
  28  0.442  0.800  0.503-  52 1.37  27 1.42  26 1.46
  29  0.610  0.901  0.503-  26 1.42  20 1.43  46 1.43
  30  0.888  0.000  0.501-  32 1.43  33 1.43  48 1.43
  31  0.721  0.101  0.502-  23 1.43  32 1.43  36 1.43
  32  0.777  0.001  0.502-  30 1.43  31 1.43  46 1.43
  33  0.943  0.101  0.501-  30 1.43   2 1.44  34 1.44
  34  0.887  0.202  0.501-  37 1.43  33 1.44  36 1.44
  35  0.716  0.301  0.500-  51 1.38  36 1.44  39 1.47
  36  0.775  0.202  0.501-  31 1.43  34 1.44  35 1.44
  37  0.943  0.301  0.500-  34 1.43  38 1.43   6 1.44
  38  0.886  0.401  0.500-  40 1.43  37 1.43  39 1.45
  39  0.773  0.405  0.500-  54 1.36  38 1.45  35 1.47
  40  0.943  0.500  0.500-  38 1.43  41 1.43  10 1.45
  41  0.886  0.600  0.500-  40 1.43  44 1.43  43 1.45
  42  0.716  0.700  0.501-  53 1.38  47 1.44  43 1.48
  43  0.773  0.596  0.500-  54 1.36  41 1.45  42 1.48
  44  0.943  0.699  0.500-  45 1.43  41 1.43  13 1.44
  45  0.887  0.799  0.501-  44 1.43  48 1.44  47 1.44
  46  0.721  0.900  0.502-  29 1.43  32 1.43  47 1.43
  47  0.775  0.799  0.501-  46 1.43  45 1.44  42 1.44
  48  0.943  0.900  0.501-  30 1.43  45 1.44  17 1.44
  49  0.278  0.500  0.501-   9 1.36  12 1.36
  50  0.390  0.298  0.498-  25 1.38   8 1.38  55 2.01
  51  0.608  0.298  0.498-  24 1.38  35 1.38  55 2.02
  52  0.390  0.704  0.502-  28 1.37  15 1.38  56 2.06
  53  0.609  0.704  0.502-  26 1.37  42 1.38  56 2.06
  54  0.720  0.500  0.501-  39 1.36  43 1.36
  55  0.499  0.401  0.463-  50 2.01  51 2.02  56 2.34
  56  0.500  0.588  0.479-  53 2.06  52 2.06  55 2.34

  LATTYP: Found a simple orthorhombic cell.
 ALAT       =    12.4000000000
 B/A-ratio  =     1.0330645161
 C/A-ratio  =     1.6129032258

  Lattice vectors:

 A1 = (   0.0000000000, -12.4000000000,   0.0000000000)
 A2 = ( -12.8100000000,   0.0000000000,   0.0000000000)
 A3 = (   0.0000000000,   0.0000000000, -20.0000000000)

Analysis of symmetry for initial positions (statically):
 Subroutine PRICEL returns:
 Original cell was already a primitive cell.

 Routine SETGRP: Setting up the symmetry group for a
 simple orthorhombic supercell.

 Subroutine GETGRP returns: Found  1 space group operations
 (whereof  1 operations were pure point group operations)
 out of a pool of  8 trial point group operations.

The static configuration has the point symmetry C_1 .

Analysis of symmetry for dynamics (positions and initial velocities):
 Subroutine PRICEL returns:
 Original cell was already a primitive cell.

[...]

The dynamic configuration has the point symmetry C_1 .

Analysis of structural, dynamic, and magnetic symmetry:
 Subroutine PRICEL returns:
 Original cell was already a primitive cell.

 Routine SETGRP: Setting up the symmetry group for a
 simple orthorhombic supercell.

 Subroutine GETGRP returns: Found  1 space group operations
 (whereof  1 operations were pure point group operations)
 out of a pool of  8 trial point group operations.

The magnetic configuration has the point symmetry C_1 .

 Subroutine INISYM returns: Found  1 space group operations
 (whereof  1 operations are pure point group operations),
 and found     1 'primitive' translations

 KPOINTS: KPOINTS created by Atomic Simulation Env

Automatic generation of k-mesh.
Space group operators:
 irot       det(A)        alpha          n_x          n_y          n_z        tau_x        tau_y        tau_z
    1     1.000000     0.000000     1.000000     0.000000     0.000000     0.000000     0.000000     0.000000

 Subroutine IBZKPT returns following result:

 Found      2 irreducible k-points:

 Following reciprocal coordinates:
            Coordinates               Weight
  0.250000  0.250000  0.000000      2.000000
 -0.250000  0.250000  0.000000      2.000000

 Following cartesian coordinates:
            Coordinates               Weight
  0.019516  0.020161  0.000000      2.000000
 -0.019516  0.020161  0.000000      2.000000

 Subroutine IBZKPT_HF returns following result:

 Found      4 k-points in 1st BZ
 the following      4 k-points will be used (e.g. in the exchange kernel)
 Following reciprocal coordinates:   # in IRBZ
  0.250000  0.250000  0.000000    0.25000000   1 t-inv F
 -0.250000  0.250000  0.000000    0.25000000   2 t-inv F
 -0.250000 -0.250000  0.000000    0.25000000   1 t-inv T
  0.250000 -0.250000  0.000000    0.25000000   2 t-inv T

 SYSTEM =  unknown system
 POSCAR =   C  N Fe Zn

 Startparameter for this run:
   NWRITE =      2    write-flag & timer
   PREC   = accura    normal or accurate (medium, high low for compatibility)
   ISTART =      1    job   : 0-new  1-cont  2-samecut
   ICHARG =      0    charge: 1-file 2-atom 10-const
   ISPIN  =      2    spin polarized calculation?
   LNONCOLLINEAR =      F non collinear calculations
   LSORBIT =      F    spin-orbit coupling
   INIWAV =      1    electr: 0-lowe 1-rand  2-diag
   LASPH  =      T    aspherical Exc in radial PAW
   METAGGA=      F    non-selfconsistent MetaGGA calc.

 Electronic Relaxation 1
   ENCUT  =  500.0 eV  36.75 Ry    6.06 a.u.  23.36 22.61 36.46*2*pi/ulx,y,z
   ENINI  =  500.0     initial cutoff
   ENAUG  =  644.9 eV  augmentation charge cutoff
   NELM   =    250;   NELMIN=  2; NELMDL=  0     # of ELM steps
   EDIFF  = 0.1E-03   stopping-criterion for ELM
   LREAL  =      F    real-space projection
   NLSPLINE    = F    spline interpolate recip. space projectors
   LCOMPAT=      F    compatible to vasp.4.4
   GGA_COMPAT  = T    GGA compatible to vasp.4.4-vasp.4.6
   LMAXPAW     = -100 max onsite density
   LMAXMIX     =    2 max onsite mixed and CHGCAR
   VOSKOWN=      0    Vosko Wilk Nusair interpolation
   ROPT   =    0.00000   0.00000   0.00000   0.00000
 Ionic relaxation
   EDIFFG = -.3E-01   stopping-criterion for IOM
   NSW    =      0    number of steps for IOM
   NBLOCK =      1;   KBLOCK =      1    inner block; outer block
   IBRION =     -1    ionic relax: 0-MD 1-quasi-New 2-CG
   NFREE  =      1    steps in history (QN), initial steepest desc. (CG)
   ISIF   =      2    stress and relaxation
   IWAVPR =     10    prediction:  0-non 1-charg 2-wave 3-comb
   ISYM   =      3    0-nonsym 1-usesym 2-fastsym
   LCORR  =      T    Harris-Foulkes like correction to forces

   POTIM  = 0.5000    time-step for ionic-motion
   TEIN   =    0.0    initial temperature
   TEBEG  =    0.0;   TEEND  =   0.0 temperature during run
   SMASS  =  -3.00    Nose mass-parameter (am)
   estimated Nose-frequenzy (Omega)   =  0.10E-29 period in steps =****** mass=  -0.375E-26a.u.
   SCALEE = 1.0000    scale energy and forces
   NPACO  =    256;   APACO  = 16.0  distance and # of slots for P.C.
   PSTRESS=    0.0 pullay stress

  Mass of Ions in am
   POMASS =  12.01 14.00 55.85 65.39
  Ionic Valenz
   ZVAL   =   4.00  5.00  8.00 12.00
  Atomic Wigner-Seitz radii
  virtual crystal weights
   VCA    =   1.00  1.00  1.00  1.00
   NELECT =     242.0000    total number of electrons
   NUPDOWN=      -1.0000    fix difference up-down

 DOS related values:
   EMIN   =  10.00;   EMAX   =-10.00  energy-range for DOS
   EFERMI =   0.00
   ISMEAR =     0;   SIGMA  =   0.10  broadening in eV -4-tet -1-fermi 0-gaus

 Electronic relaxation 2 (details)
   IALGO  =     53    algorithm
   LDIAG  =      T    sub-space diagonalisation (order eigenvalues)
   LSUBROT=      F    optimize rotation matrix (better conditioning)
   TURBO    =      0    0=normal 1=particle mesh
   IRESTART =      0    0=no restart 2=restart with 2 vectors
   NREBOOT  =      0    no. of reboots
   NMIN     =      0    reboot dimension
   EREF     =   0.00    reference energy to select bands
   IMIX   =      4    mixing-type and parameters
     AMIX     =   0.40;   BMIX     =  1.00
     AMIX_MAG =   1.60;   BMIX_MAG =  1.00
     AMIN     =   0.10
     WC   =   100.;   INIMIX=   1;  MIXPRE=   1;  MAXMIX= -45

 Intra band minimization:
   WEIMIN = 0.0000     energy-eigenvalue tresh-hold
   EBREAK =  0.16E-06  absolut break condition
   DEPER  =   0.30     relativ break condition

   TIME   =   0.20     timestep for ELM

  volume/ion in A,a.u.               =      56.73       382.83
[...]
   21        0.868   1.777   0.000   2.644
   22        0.864   1.788   0.000   2.652
   23        0.868   1.777   0.000   2.644
   24        0.858   1.731   0.000   2.588
   25        0.858   1.731   0.000   2.588
   26        0.859   1.735   0.000   2.594
   27        0.868   1.777   0.000   2.645
   28        0.859   1.735   0.000   2.593
   29        0.868   1.777   0.000   2.645
   30        0.863   1.764   0.000   2.627
   31        0.867   1.753   0.000   2.620
   32        0.861   1.773   0.000   2.635
   33        0.863   1.756   0.000   2.618
   34        0.863   1.755   0.000   2.618
   35        0.851   1.702   0.000   2.553
   36        0.861   1.754   0.000   2.615
   37        0.861   1.764   0.000   2.625
   38        0.863   1.752   0.000   2.615
   39        0.851   1.713   0.000   2.564
   40        0.864   1.747   0.000   2.612
   41        0.863   1.751   0.000   2.613
   42        0.851   1.702   0.000   2.553
   43        0.850   1.710   0.000   2.560
   44        0.861   1.762   0.000   2.623
   45        0.863   1.755   0.000   2.618
   46        0.867   1.752   0.000   2.619
   47        0.861   1.753   0.000   2.614
   48        0.863   1.755   0.000   2.618
   49        1.255   2.600   0.000   3.855
   50        1.233   2.663   0.000   3.896
   51        1.233   2.662   0.000   3.895
   52        1.233   2.659   0.000   3.892
   53        1.233   2.660   0.000   3.894
   54        1.255   2.600   0.000   3.855
   55        0.451   0.353   6.002   6.806
   56        0.631   0.372   9.812  10.814
tot         49.850 100.528  15.814 166.192

 magnetization (x)

[...]

  FORCE on cell =-STRESS in cart. coord.  units (eV):
  Direction    XX          YY          ZZ          XY          YZ          ZX
  Alpha Z   101.56810   101.56810   101.56810
  Ewald   46469.43218 46781.10844-55148.60068     2.22904    35.81287     0.49817
  Hartree 46399.87852 46543.28237-45490.59769     0.94107    47.22368     0.39125
  E(xc)    -722.03912  -722.19965  -736.60939    -0.00075    -0.11930    -0.00013
  Local  -95396.47924-95836.10307 97661.97175    -3.02980   -87.23302    -0.90233
  n-local  -120.33428  -116.05066  -108.25992     0.00927     0.02476     0.00376
  augment    47.49032    46.98365    52.39373    -0.01203     1.25034     0.00619
  Kinetic  3552.17659  3528.13770  4028.96606     0.08532     3.43416     0.00289
  Fock     -383.20761  -384.07600  -361.24995     0.01212    -0.54729    -0.00497
  Total     -51.51453   -57.34911    -0.41799     0.23425    -0.15380    -0.00518
  in kB     -25.98002   -28.92254    -0.21080     0.11814    -0.07756    -0.00261

 VOLUME and BASIS-vectors are now :
  energy-cutoff  :      500.00
  volume of cell :     3176.88
      direct lattice vectors                 reciprocal lattice vectors
    12.810000000  0.000000000  0.000000000     0.078064012  0.000000000  0.000000000
     0.000000000 12.400000000  0.000000000     0.000000000  0.080645161  0.000000000
     0.000000000  0.000000000 20.000000000     0.000000000  0.000000000  0.050000000

  length of vectors
    12.810000000 12.400000000 20.000000000     0.078064012  0.080645161  0.050000000

 FORCES acting on ions:
    Electron-Ion                     Ewald-Force                    Non-Local-Force
   0.571E+01 -.129E+01 -.640E+01   -.611E+01 0.130E+01 0.641E+01   0.422E+00 0.665E-02 -.567E-02
   0.115E+01 -.171E+01 -.429E+01   -.110E+01 0.163E+01 0.430E+01   0.171E-02 0.288E-01 -.308E-02
   0.507E+01 -.859E+00 -.356E+01   -.521E+01 0.865E+00 0.355E+01   0.881E-01 0.135E-01 0.884E-02
   0.111E+02 0.143E+01 -.866E+01   -.115E+02 -.169E+01 0.863E+01   0.334E+00 0.237E+00 0.291E-01
   0.117E+02 -.337E+01 -.788E+01   -.120E+02 0.359E+01 0.785E+01   0.350E+00 -.181E+00 0.315E-01
   0.246E+01 -.125E+01 -.349E+01   -.263E+01 0.111E+01 0.347E+01   0.192E+00 0.803E-01 0.468E-02
   0.137E+01 0.248E+00 -.591E+01   -.181E+01 -.905E-01 0.592E+01   0.339E+00 -.992E-01 -.153E-01
   0.306E+02 -.203E+02 -.977E+01   -.338E+02 0.208E+02 0.100E+02   0.353E+01 -.724E+00 -.255E+00
   0.161E+01 0.272E+02 -.814E+01   -.300E+01 -.288E+02 0.821E+01   0.134E+01 0.190E+01 -.812E-01
   0.839E+01 0.495E+00 -.145E+01   -.807E+01 -.476E+00 0.150E+01   -.118E+00 -.109E-01 -.451E-01
   0.126E+00 0.602E+01 -.262E+01   0.462E-01 -.645E+01 0.257E+01   -.194E+00 0.450E+00 0.386E-01
   0.750E+01 -.238E+02 -.927E+01   -.882E+01 0.254E+02 0.935E+01   0.131E+01 -.193E+01 -.725E-01
   0.329E+01 0.183E+01 0.399E+00   -.344E+01 -.169E+01 -.411E+00   0.195E+00 -.691E-01 0.213E-01
   0.140E+01 -.461E+01 -.307E+00   -.121E+01 0.503E+01 0.254E+00   -.243E+00 -.458E+00 0.552E-01
   0.446E+02 0.189E+02 -.133E+02   -.479E+02 -.194E+02 0.134E+02   0.346E+01 0.710E+00 -.590E-01
   0.161E+02 0.134E+01 -.686E+01   -.163E+02 -.161E+01 0.681E+01   0.361E+00 0.236E+00 0.423E-01
   0.146E+01 0.843E+00 -.257E+01   -.141E+01 -.798E+00 0.258E+01   0.278E-02 -.259E-01 -.655E-02
   0.294E+01 -.103E+01 -.240E+01   -.341E+01 0.877E+00 0.239E+01   0.326E+00 0.108E+00 0.149E-01
   0.136E+02 -.596E+01 -.931E+01   -.139E+02 0.616E+01 0.931E+01   0.309E+00 -.206E+00 0.312E-02
   -.435E+01 -.329E+01 -.187E+02   0.395E+01 0.327E+01 0.187E+02   0.336E+00 0.146E-01 -.316E-01
   0.439E+01 0.546E+01 -.163E+02   -.421E+01 -.605E+01 0.163E+02   -.882E-01 0.607E+00 -.143E-02
   0.440E+01 -.328E+01 -.188E+02   -.399E+01 0.326E+01 0.188E+02   -.331E+00 0.196E-01 -.329E-01
   -.439E+01 0.535E+01 -.163E+02   0.421E+01 -.595E+01 0.163E+02   0.912E-01 0.603E+00 -.458E-03
   0.111E+02 0.236E+02 -.224E+02   -.121E+02 -.265E+02 0.230E+02   0.123E+01 0.291E+01 -.536E+00
   -.112E+02 0.237E+02 -.224E+02   0.122E+02 -.266E+02 0.230E+02   -.124E+01 0.292E+01 -.536E+00
   0.914E+01 -.429E+02 -.283E+02   -.103E+02 0.457E+02 0.286E+02   0.137E+01 -.282E+01 -.300E+00
   0.603E+01 -.138E+02 -.174E+02   -.582E+01 0.143E+02 0.174E+02   -.160E+00 -.500E+00 0.115E-01
   -.879E+01 -.427E+02 -.284E+02   0.991E+01 0.455E+02 0.287E+02   -.135E+01 -.281E+01 -.297E+00
   -.594E+01 -.140E+02 -.173E+02   0.573E+01 0.145E+02 0.172E+02   0.159E+00 -.508E+00 0.127E-01
   -.511E+01 -.789E+00 -.370E+01   0.525E+01 0.795E+00 0.370E+01   -.886E-01 0.832E-02 0.715E-02
   -.112E+02 0.144E+01 -.872E+01   0.116E+02 -.171E+01 0.868E+01   -.332E+00 0.237E+00 0.282E-01
   -.572E+01 -.158E+01 -.651E+01   0.612E+01 0.160E+01 0.652E+01   -.422E+00 0.102E-01 -.853E-02
   -.112E+01 -.192E+01 -.433E+01   0.107E+01 0.185E+01 0.434E+01   -.259E-02 0.266E-01 -.232E-02
   -.130E+01 0.365E+00 -.596E+01   0.174E+01 -.212E+00 0.597E+01   -.333E+00 -.101E+00 -.152E-01
   -.305E+02 -.203E+02 -.985E+01   0.338E+02 0.208E+02 0.101E+02   -.351E+01 -.726E+00 -.252E+00
   -.116E+02 -.356E+01 -.792E+01   0.120E+02 0.378E+01 0.789E+01   -.342E+00 -.186E+00 0.322E-01
   -.241E+01 -.130E+01 -.352E+01   0.258E+01 0.117E+01 0.351E+01   -.186E+00 0.810E-01 0.398E-02
   -.769E-01 0.611E+01 -.263E+01   -.990E-01 -.654E+01 0.258E+01   0.203E+00 0.447E+00 0.390E-01
   -.152E+01 0.275E+02 -.822E+01   0.291E+01 -.291E+02 0.829E+01   -.133E+01 0.190E+01 -.812E-01
   -.848E+01 0.601E+00 -.140E+01   0.816E+01 -.580E+00 0.145E+01   0.114E+00 -.200E-02 -.448E-01
   -.166E+01 -.451E+01 -.149E+00   0.148E+01 0.492E+01 0.951E-01   0.233E+00 -.458E+00 0.571E-01
   -.449E+02 0.186E+02 -.131E+02   0.482E+02 -.192E+02 0.132E+02   -.348E+01 0.707E+00 -.600E-01
   -.786E+01 -.236E+02 -.913E+01   0.919E+01 0.253E+02 0.920E+01   -.133E+01 -.192E+01 -.702E-01
   -.347E+01 0.173E+01 0.466E+00   0.363E+01 -.159E+01 -.478E+00   -.195E+00 -.685E-01 0.220E-01
   -.315E+01 -.935E+00 -.239E+01   0.362E+01 0.780E+00 0.238E+01   -.331E+00 0.104E+00 0.135E-01
   -.136E+02 -.602E+01 -.921E+01   0.139E+02 0.622E+01 0.920E+01   -.309E+00 -.207E+00 0.503E-02
   -.162E+02 0.105E+01 -.672E+01   0.164E+02 -.132E+01 0.668E+01   -.369E+00 0.224E+00 0.431E-01
   -.159E+01 0.625E+00 -.265E+01   0.155E+01 -.575E+00 0.266E+01   -.272E-02 -.285E-01 -.816E-02
   -.104E+03 0.919E+01 -.293E+02   0.136E+03 -.925E+01 0.307E+02   -.300E+02 0.713E-01 -.130E+01
   -.715E+00 -.717E+02 -.276E+02   0.111E+02 0.915E+02 0.290E+02   -.101E+02 -.190E+02 -.122E+01
   0.849E+00 -.720E+02 -.278E+02   -.112E+02 0.919E+02 0.292E+02   0.102E+02 -.191E+02 -.123E+01
   0.316E+02 0.419E+02 -.494E+02   -.205E+02 -.621E+02 0.509E+02   -.105E+02 0.191E+02 -.141E+01
   -.317E+02 0.407E+02 -.491E+02   0.207E+02 -.608E+02 0.507E+02   0.104E+02 0.191E+02 -.140E+01
   0.104E+03 0.974E+01 -.295E+02   -.135E+03 -.976E+01 0.310E+02   0.300E+02 0.387E-01 -.131E+01
   0.222E+00 -.196E+02 0.372E+03   -.212E+00 0.245E+02 -.369E+03   0.523E-02 -.458E+01 -.349E+01
   0.103E+01 0.129E+03 0.268E+03   -.107E+01 -.140E+03 -.273E+03   0.263E-01 0.105E+02 0.452E+01
   0.553E-02 -.751E+01 0.971E+01   -.490E-12 -.369E-12 -.171E-12   -.774E-02 0.669E+01 -.913E+01

 POSITION                                       TOTAL-FORCE (eV/Angst)
      2.83829      0.00550     10.03630         0.038321      0.020701      0.002563
      0.70712      1.25405     10.02448         0.047001     -0.047722      0.006832
      1.40815      0.00468     10.02597        -0.043314      0.019846      0.006923
      3.54802      1.24861     10.03508        -0.009797     -0.011201     -0.001677
      2.86021      2.50750     10.01853         0.036474      0.030651      0.001907
      0.70900      3.73706     10.00964         0.034354     -0.054953     -0.008529
      1.42052      2.49980     10.02077        -0.086230      0.056345     -0.008250
      3.61220      3.73620      9.99045         0.449859     -0.228365     -0.015289
      2.88836      5.01838      9.99770         0.027094      0.403740     -0.006592
      0.71465      6.20496      9.99658         0.202912      0.007365     -0.000129
      1.43584      4.97108      9.99929        -0.035207      0.055922     -0.009798
      2.89358      7.38730     10.00757         0.063229     -0.410440      0.002128
      0.71063      8.67139     10.00000         0.058201      0.074364      0.011450
      1.44018      7.43754      9.99583        -0.065395     -0.067394      0.005845
      3.62077      8.67432     10.02248         0.365600      0.230374      0.009779
      2.86129      9.90211     10.02763         0.102130     -0.021362     -0.001324
      0.70786     11.15563     10.01994         0.047367      0.019302      0.002416
      1.42189      9.90913     10.01466        -0.125698     -0.041720      0.003603
      3.54893     11.16132     10.04503         0.014252     -0.018247     -0.002656
      7.10408      0.00773     10.07298        -0.057357     -0.001325     -0.010520
      4.97593      1.24282     10.04972         0.089559      0.046523     -0.002730
      5.68481      0.00725     10.07320         0.061237      0.002925     -0.011893
      7.81239      1.24353     10.04967        -0.085469      0.042744     -0.001875
      7.12332      2.49051     10.01420         0.340996      0.205722     -0.019824
      5.66464      2.48992     10.01399        -0.345743      0.202456     -0.018920
      7.12733      9.92246     10.06187         0.307713     -0.192876     -0.026110
      4.97641     11.16975     10.06731         0.041551     -0.038900     -0.012725
      5.66330      9.92183     10.06236        -0.313188     -0.196803     -0.026140
      7.81338     11.17056     10.06679        -0.046041     -0.041344     -0.011198
     11.38087      0.00519     10.02633         0.043651      0.016265      0.004984
      9.24025      1.24947     10.03531         0.012637     -0.012046     -0.002158
      9.95076      0.00625     10.03653        -0.038920      0.029840      0.000451
     12.08123      1.25445     10.02464        -0.050309     -0.045545      0.007176
     11.36711      2.50043     10.02099         0.090622      0.051095     -0.008360
      9.17478      3.73775      9.99095        -0.443743     -0.233596     -0.015389
      9.92724      2.50865     10.01883        -0.029847      0.029841      0.002098
     12.07864      3.73739     10.00976        -0.030909     -0.053708     -0.009133
     11.35217      4.97183      9.99935         0.039981      0.049739     -0.010550
      9.89940      5.01975      9.99800        -0.021158      0.407320     -0.007324
     12.07460      6.20504      9.99642        -0.206146      0.019373      0.000514
     11.35001      7.43820      9.99529         0.063116     -0.072455      0.007234
      9.17078      8.67589     10.02143        -0.371744      0.225502      0.011541
      9.89704      7.38870     10.00695        -0.068971     -0.409764      0.003532
     12.07950      8.67176      9.99974        -0.054029      0.076377      0.011704
     11.36835      9.90990     10.01446         0.126788     -0.048996      0.003054
      9.24085     11.16225     10.04457        -0.016642     -0.014892     -0.001729
      9.92931      9.90349     10.02695        -0.106576     -0.028157      0.000378
     12.08179     11.15606     10.02008        -0.042457      0.020946      0.000771
      3.56672      6.20117     10.01388        -0.946334      0.026444      0.025506
      4.99412      3.69461      9.95517        -0.670272     -0.886087      0.050089
      7.79273      3.69587      9.95597         0.666169     -0.880359      0.041879
      4.99617      8.72699     10.03191        -0.343532      0.598697      0.013295
      7.79565      8.72831     10.03055         0.333894      0.600175      0.016724
      9.22252      6.20346     10.01408         0.946343      0.019574      0.025427
      6.39066      4.97290      9.26670         0.014259      0.315686      0.015869
      6.40044      7.28970      9.57495        -0.010278      0.152398     -0.044847
    total drift:                                0.000825     -0.020915     -0.016363

  FREE ENERGIE OF THE ION-ELECTRON SYSTEM (eV)
  free  energy   TOTEN  =      -578.58068382 eV

  energy  without entropy=     -578.58068374  energy(sigma->0) =     -578.58068378

 stress matrix after NEB project (eV)
    -51.51453      0.23424     -0.00518
      0.23425    -57.34911     -0.15626
     -0.00527     -0.15380     -0.41799
  FORCES: max atom, RMS     1.112171    0.372083
  FORCE total and by dimension    2.784416    0.946343
  Stress total and by dimension   77.090857   57.349113
 writing wavefunctions

 total charge

[...]

 magnetization (x)

# of ion       s       p       d       tot
    1       -0.000  -0.000   0.000  -0.000
    2        0.000  -0.000   0.000  -0.000
    3        0.000   0.000   0.000   0.000
    4        0.000   0.000   0.000   0.000
    5        0.000   0.002   0.000   0.002
    6        0.000   0.001   0.000   0.001
    7        0.000   0.000   0.000   0.001
    8        0.000   0.000   0.000   0.000
    9        0.000   0.004   0.000   0.004
   10        0.000   0.001   0.000   0.001
   11        0.000   0.000   0.000   0.000
   12        0.000   0.001   0.000   0.001
   13        0.000  -0.000   0.000  -0.000
   14        0.000  -0.000   0.000   0.000
   15        0.000   0.002   0.000   0.003
   16       -0.000  -0.001   0.000  -0.001
   17        0.000  -0.000   0.000   0.000
   18       -0.000  -0.000   0.000  -0.000
   19        0.000   0.002   0.000   0.002
   20        0.000   0.001   0.000   0.001
   21        0.000   0.000   0.000   0.000
   22        0.000   0.001   0.000   0.001
   23        0.000   0.000   0.000   0.000
   24        0.001   0.005   0.000   0.006
   25        0.001   0.005   0.000   0.006
   26       -0.000   0.000   0.000   0.000
   27       -0.000  -0.000   0.000  -0.000
   28       -0.000   0.000   0.000   0.000
   29       -0.000  -0.000   0.000  -0.000
   30        0.000   0.000   0.000   0.000
   31        0.000   0.000   0.000   0.000
   32       -0.000  -0.000   0.000  -0.000
   33        0.000  -0.000   0.000  -0.000
   34        0.000   0.000   0.000   0.000
   35        0.000   0.000   0.000   0.000
   36        0.000   0.002   0.000   0.002
   37        0.000   0.001   0.000   0.001
   38        0.000   0.000   0.000   0.000
   39        0.000   0.004   0.000   0.004
   40        0.000   0.001   0.000   0.001
   41        0.000  -0.000   0.000   0.000
   42        0.000   0.002   0.000   0.003
   43        0.000   0.001   0.000   0.001
   44        0.000  -0.000   0.000  -0.000
   45       -0.000  -0.000   0.000  -0.000
   46        0.000   0.002   0.000   0.002
   47       -0.000  -0.001   0.000  -0.001
   48        0.000   0.000   0.000   0.000
   49        0.003   0.007   0.000   0.010
   50        0.006   0.022   0.000   0.028
   51        0.006   0.022   0.000   0.028
   52       -0.000  -0.002   0.000  -0.002
   53       -0.000  -0.002   0.000  -0.002
   54        0.003   0.007   0.000   0.010
   55        0.048   0.056   3.468   3.572
   56       -0.016  -0.009   0.008  -0.017
tot          0.056   0.138   3.475   3.668