 vasp.5.4.4.18Apr17-6-g9f103f2a35 (build Feb 25 2019 10:51:38) complex

 executed on             LinuxIFC date 2021.06.19  03:22:14

 INCAR:
 POTCAR:    PAW_PBE C 08Apr2002
 POTCAR:    PAW_PBE N 08Apr2002
 POTCAR:    PAW_PBE Fe 06Sep2000
 POTCAR:    PAW_PBE Ti 08Apr2002

 POTCAR:    PAW_PBE C 08Apr2002
   VRHFIN =C: s2p2

   TITEL  = PAW_PBE C 08Apr2002
   POMASS =   12.011; ZVAL   =    4.000    mass and valenz
   ENMAX  =  400.000; ENMIN  =  300.000 eV

 POTCAR:    PAW_PBE N 08Apr2002
   VRHFIN =N: s2p3

[...]

 POTCAR:    PAW_PBE Fe 06Sep2000
   VRHFIN =Fe:  d7 s1

   TITEL  = PAW_PBE Fe 06Sep2000
   POMASS =   55.847; ZVAL   =    8.000    mass and valenz
   ENMAX  =  267.882; ENMIN  =  200.911 eV

 POTCAR:    PAW_PBE Ti 08Apr2002
   VRHFIN =Ti: d3 s1

   TITEL  = PAW_PBE Ti 08Apr2002
   POMASS =   47.880; ZVAL   =    4.000    mass and valenz
   ENMAX  =  178.330; ENMIN  =  133.747 eV

  PAW_PBE C 08Apr2002                   :
  PAW_PBE N 08Apr2002                   :
  PAW_PBE Fe 06Sep2000                  :
  PAW_PBE Ti 08Apr2002                  :

 POSCAR:  C  N Fe Ti
  positions in cartesian coordinates
 exchange correlation table for  LEXCH =        8
   RHO(1)=    0.500       N(1)  =     2000
   RHO(2)=  100.500       N(2)  =     4000

 VTST: version 3.2, (02/03/18)

 CHAIN: initializing optimizer

 OPT: Using VASP Conjugate-Gradient optimizer
 CHAIN: Read ICHAIN            0

 POSCAR:  C  N Fe Ti
  positions in cartesian coordinates

 ion  position               nearest neighbor table
   1  0.221  1.000  0.504-   3 1.42  20 1.42   4 1.43
   2  0.055  0.101  0.505-  34 1.43   3 1.43   7 1.44
   3  0.110  1.000  0.504-   1 1.42  18 1.43   2 1.43
   4  0.277  0.099  0.505-  22 1.42   5 1.42   1 1.43
   5  0.224  0.200  0.504-   4 1.42   7 1.43   8 1.44
   6  0.056  0.301  0.504-   7 1.43  38 1.44  11 1.44
   7  0.111  0.201  0.504-   6 1.43   5 1.43   2 1.44
   8  0.284  0.298  0.502-  51 1.39   5 1.44   9 1.45
   9  0.226  0.399  0.500-  11 1.44  12 1.44   8 1.45
  10  0.056  0.500  0.501-  11 1.44  15 1.45  42 1.45
  11  0.113  0.400  0.502-   6 1.44   9 1.44  10 1.44
  12  0.282  0.499  0.494-  53 1.34   9 1.44  13 1.46
  13  0.227  0.601  0.496-  15 1.44  16 1.45  12 1.46
  14  0.056  0.699  0.501-  19 1.43  46 1.44  15 1.44
  15  0.113  0.600  0.499-  14 1.44  13 1.44  10 1.45
  16  0.283  0.702  0.496-  55 1.39  17 1.44  13 1.45
  17  0.223  0.800  0.501-  20 1.43  19 1.43  16 1.44
  18  0.055  0.899  0.503-  50 1.42   3 1.43  19 1.44
  19  0.111  0.799  0.502-  17 1.43  14 1.43  18 1.44
  20  0.277  0.901  0.503-  28 1.42   1 1.42  17 1.43
  21  0.555  0.000  0.506-  23 1.41  30 1.42  24 1.42
  22  0.388  0.099  0.506-  26 1.41   4 1.42  23 1.42
  23  0.444  0.000  0.506-  21 1.41  28 1.42  22 1.42
  24  0.610  0.099  0.506-  25 1.41  32 1.42  21 1.42
  25  0.555  0.197  0.505-  52 1.38  24 1.41  26 1.43
  26  0.443  0.197  0.505-  51 1.38  22 1.41  25 1.43
  27  0.556  0.804  0.497-  56 1.38  30 1.41  29 1.43
  28  0.388  0.902  0.503-  29 1.41  23 1.42  20 1.42
  29  0.443  0.804  0.497-  55 1.38  28 1.41  27 1.43
  30  0.610  0.902  0.503-  27 1.41  21 1.42  48 1.42
  31  0.889  1.000  0.504-  33 1.42  50 1.43  34 1.43
  32  0.722  0.099  0.505-  24 1.42  37 1.42  33 1.43
  33  0.777  1.000  0.504-  31 1.42  48 1.42  32 1.43
  34  0.943  0.101  0.505-   2 1.43  31 1.43  35 1.44
  35  0.887  0.201  0.504-  38 1.43  37 1.43  34 1.44
  36  0.715  0.298  0.502-  52 1.39  37 1.44  41 1.45
  37  0.774  0.200  0.504-  32 1.42  35 1.43  36 1.44
  38  0.943  0.301  0.504-  35 1.43   6 1.44  39 1.44
  39  0.885  0.400  0.502-  38 1.44  41 1.44  42 1.44
  40  0.716  0.499  0.494-  54 1.34  41 1.44  45 1.46
  41  0.772  0.399  0.500-  39 1.44  40 1.44  36 1.45
  42  0.942  0.500  0.501-  39 1.44  43 1.45  10 1.45
  43  0.885  0.600  0.499-  46 1.44  45 1.44  42 1.45
  44  0.716  0.702  0.496-  56 1.39  49 1.44  45 1.45
  45  0.772  0.601  0.496-  43 1.44  44 1.45  40 1.46
  46  0.943  0.699  0.501-  47 1.43  14 1.44  43 1.44
  47  0.887  0.799  0.502-  49 1.43  46 1.43  50 1.44
  48  0.722  0.901  0.503-  30 1.42  33 1.42  49 1.43
  49  0.775  0.800  0.501-  48 1.43  47 1.43  44 1.44
  50  0.943  0.899  0.503-  18 1.42  31 1.43  47 1.44
  51  0.393  0.295  0.502-  26 1.38   8 1.39  57 1.94
  52  0.605  0.295  0.502-  25 1.38  36 1.39  57 1.93
  53  0.386  0.498  0.484-  12 1.34  57 1.85  58 1.88
  54  0.612  0.498  0.484-  40 1.34  57 1.85  58 1.88
  55  0.392  0.707  0.490-  29 1.38  16 1.39  58 2.09
  56  0.607  0.707  0.490-  27 1.38  44 1.39  58 2.09
  57  0.499  0.405  0.490-  54 1.85  53 1.85  52 1.93  51 1.94  58 2.37
  58  0.499  0.589  0.462-  54 1.88  53 1.88  56 2.09  55 2.09  57 2.37

  LATTYP: Found a simple monoclinic cell.
 ALAT       =    23.5931682547
 B/A-ratio  =     0.5392408456
 C/A-ratio  =     1.7774899299
 COS(beta)  =    -0.9676284359

  Lattice vectors:

 A1 = (  -0.0000485228,  12.4939061914, -20.0134928578)
 A2 = ( -12.7224000000,   0.0000000000,   0.0000000000)
 A3 = (   0.0002930338, -12.5108123844,  40.0269857157)

Analysis of symmetry for initial positions (statically):
 Subroutine PRICEL returns:
 Original cell was already a primitive cell.

 Routine SETGRP: Setting up the symmetry group for a
 simple monoclinic supercell.

 Subroutine GETGRP returns: Found  1 space group operations
 (whereof  1 operations were pure point group operations)
 out of a pool of  4 trial point group operations.

The static configuration has the point symmetry C_1 .

Analysis of symmetry for dynamics (positions and initial velocities):
 Subroutine PRICEL returns:
 Original cell was already a primitive cell.

[...]

The dynamic configuration has the point symmetry C_1 .

Analysis of structural, dynamic, and magnetic symmetry:
 Subroutine PRICEL returns:
 Original cell was already a primitive cell.

 Routine SETGRP: Setting up the symmetry group for a
 simple monoclinic supercell.

 Subroutine GETGRP returns: Found  1 space group operations
 (whereof  1 operations were pure point group operations)
 out of a pool of  4 trial point group operations.

The magnetic configuration has the point symmetry C_1 .

 Subroutine INISYM returns: Found  1 space group operations
 (whereof  1 operations are pure point group operations),
 and found     1 'primitive' translations

 KPOINTS: KPOINTS created by Atomic Simulation Env

Automatic generation of k-mesh.
Space group operators:
 irot       det(A)        alpha          n_x          n_y          n_z        tau_x        tau_y        tau_z
    1     1.000000     0.000000     1.000000     0.000000     0.000000     0.000000     0.000000     0.000000

 Subroutine IBZKPT returns following result:

 Found      2 irreducible k-points:

 Following reciprocal coordinates:
            Coordinates               Weight
  0.250000  0.250000  0.000000      2.000000
 -0.250000  0.250000  0.000000      2.000000

 Following cartesian coordinates:
            Coordinates               Weight
  0.019650  0.020037  0.000017      2.000000
 -0.019650  0.020037  0.000017      2.000000

 Subroutine IBZKPT_HF returns following result:

 Found      4 k-points in 1st BZ
 the following      4 k-points will be used (e.g. in the exchange kernel)
 Following reciprocal coordinates:   # in IRBZ
  0.250000  0.250000  0.000000    0.25000000   1 t-inv F
 -0.250000  0.250000  0.000000    0.25000000   2 t-inv F
 -0.250000 -0.250000  0.000000    0.25000000   1 t-inv T
  0.250000 -0.250000 -0.000000    0.25000000   2 t-inv T

 SYSTEM =  unknown system
 POSCAR =   C  N Fe Ti

 Startparameter for this run:
   NWRITE =      2    write-flag & timer
   PREC   = accura    normal or accurate (medium, high low for compatibility)
   ISTART =      1    job   : 0-new  1-cont  2-samecut
   ICHARG =      0    charge: 1-file 2-atom 10-const
   ISPIN  =      2    spin polarized calculation?
   LNONCOLLINEAR =      F non collinear calculations
   LSORBIT =      F    spin-orbit coupling
   INIWAV =      1    electr: 0-lowe 1-rand  2-diag
   LASPH  =      T    aspherical Exc in radial PAW
   METAGGA=      F    non-selfconsistent MetaGGA calc.

 Electronic Relaxation 1
   ENCUT  =  500.0 eV  36.75 Ry    6.06 a.u.  23.20 22.75 36.49*2*pi/ulx,y,z
   ENINI  =  500.0     initial cutoff
   ENAUG  =  644.9 eV  augmentation charge cutoff
   NELM   =    250;   NELMIN=  2; NELMDL=  0     # of ELM steps
   EDIFF  = 0.1E-03   stopping-criterion for ELM
   LREAL  =      F    real-space projection
   NLSPLINE    = F    spline interpolate recip. space projectors
   LCOMPAT=      F    compatible to vasp.4.4
   GGA_COMPAT  = T    GGA compatible to vasp.4.4-vasp.4.6
   LMAXPAW     = -100 max onsite density
   LMAXMIX     =    2 max onsite mixed and CHGCAR
   VOSKOWN=      0    Vosko Wilk Nusair interpolation
   ROPT   =    0.00000   0.00000   0.00000   0.00000
 Ionic relaxation
   EDIFFG = -.3E-01   stopping-criterion for IOM
   NSW    =      0    number of steps for IOM
   NBLOCK =      1;   KBLOCK =      1    inner block; outer block
   IBRION =     -1    ionic relax: 0-MD 1-quasi-New 2-CG
   NFREE  =      1    steps in history (QN), initial steepest desc. (CG)
   ISIF   =      2    stress and relaxation
   IWAVPR =     10    prediction:  0-non 1-charg 2-wave 3-comb
   ISYM   =      3    0-nonsym 1-usesym 2-fastsym
   LCORR  =      T    Harris-Foulkes like correction to forces

   POTIM  = 0.5000    time-step for ionic-motion
   TEIN   =    0.0    initial temperature
   TEBEG  =    0.0;   TEEND  =   0.0 temperature during run
   SMASS  =  -3.00    Nose mass-parameter (am)
   estimated Nose-frequenzy (Omega)   =  0.10E-29 period in steps =****** mass=  -0.370E-26a.u.
   SCALEE = 1.0000    scale energy and forces
   NPACO  =    256;   APACO  = 16.0  distance and # of slots for P.C.
   PSTRESS=    0.0 pullay stress

  Mass of Ions in am
   POMASS =  12.01 14.00 55.85 47.88
  Ionic Valenz
   ZVAL   =   4.00  5.00  8.00  4.00
  Atomic Wigner-Seitz radii
  virtual crystal weights
   VCA    =   1.00  1.00  1.00  1.00
   NELECT =     242.0000    total number of electrons
   NUPDOWN=      -1.0000    fix difference up-down

 DOS related values:
   EMIN   =  10.00;   EMAX   =-10.00  energy-range for DOS
   EFERMI =   0.00
   ISMEAR =     0;   SIGMA  =   0.10  broadening in eV -4-tet -1-fermi 0-gaus

 Electronic relaxation 2 (details)
   IALGO  =     53    algorithm
   LDIAG  =      T    sub-space diagonalisation (order eigenvalues)
   LSUBROT=      F    optimize rotation matrix (better conditioning)
   TURBO    =      0    0=normal 1=particle mesh
   IRESTART =      0    0=no restart 2=restart with 2 vectors
   NREBOOT  =      0    no. of reboots
   NMIN     =      0    reboot dimension
   EREF     =   0.00    reference energy to select bands
   IMIX   =      4    mixing-type and parameters
     AMIX     =   0.40;   BMIX     =  1.00
     AMIX_MAG =   1.60;   BMIX_MAG =  1.00
     AMIN     =   0.10
     WC   =   100.;   INIMIX=   1;  MIXPRE=   1;  MAXMIX= -45

 Intra band minimization:
   WEIMIN = 0.0000     energy-eigenvalue tresh-hold
   EBREAK =  0.16E-06  absolut break condition
   DEPER  =   0.30     relativ break condition

   TIME   =   0.20     timestep for ELM

[...]
   33        0.866   1.784   0.000   2.650
   34        0.863   1.760   0.000   2.624
   35        0.863   1.755   0.000   2.617
   36        0.852   1.702   0.000   2.554
   37        0.863   1.764   0.000   2.628
   38        0.862   1.759   0.000   2.621
   39        0.859   1.741   0.000   2.600
   40        0.862   1.721   0.000   2.583
   41        0.856   1.759   0.000   2.615
   42        0.855   1.736   0.000   2.592
   43        0.858   1.737   0.000   2.595
   44        0.852   1.702   0.000   2.554
   45        0.853   1.746   0.000   2.599
   46        0.861   1.758   0.000   2.619
   47        0.863   1.755   0.000   2.618
   48        0.868   1.772   0.000   2.640
   49        0.863   1.765   0.000   2.628
   50        0.864   1.762   0.000   2.626
   51        1.230   2.654   0.000   3.884
   52        1.230   2.654   0.000   3.883
   53        1.252   2.623   0.000   3.875
   54        1.252   2.623   0.000   3.875
   55        1.231   2.664   0.000   3.896
   56        1.231   2.664   0.000   3.896
   57        0.479   0.706   6.341   7.526
   58        0.506   0.900   2.798   4.205
tot         51.538 105.361   9.138 166.037

 magnetization (x)

[...]

  FORCE on cell =-STRESS in cart. coord.  units (eV):
  Direction    XX          YY          ZZ          XY          YZ          ZX
  Alpha Z   101.36074   101.36074   101.36074
  Ewald   47266.55642 46854.64920-55334.90741    -0.13805   -51.73570     0.03865
  Hartree 46496.65381 46344.24824-45851.22321    -0.02509   -45.20108     0.03758
  E(xc)    -704.06395  -704.57338  -715.89132     0.00048     0.21389    -0.00150
  Local  -96347.84043-95836.82327 98089.61339     0.14816    99.16881    -0.09246
  n-local  -192.67182  -197.84845  -194.05995     0.00091     0.19762     0.00634
  augment    23.28758    26.85685    27.57340    -0.00798    -0.61928     0.00872
  Kinetic  3598.14608  3656.91929  4140.94603    -0.01479    -2.54065     0.00946
  Fock     -287.32515  -289.96555  -264.32186     0.00660    -0.05540    -0.00645
  Total     -45.89672   -45.17633    -0.91020    -0.02976    -0.57178     0.00033
  in kB     -23.14676   -22.78345    -0.45903    -0.01501    -0.28836     0.00017

 VOLUME and BASIS-vectors are now :
  energy-cutoff  :      500.00
  volume of cell :     3176.89
      direct lattice vectors                 reciprocal lattice vectors
    12.722400000  0.000000000  0.000000000     0.078601522 -0.000001235 -0.000000961
     0.000195988 12.476999998  0.000000000     0.000000000  0.080147471  0.000067704
     0.000244511 -0.016906193 20.013492858     0.000000000  0.000000000  0.049966291

  length of vectors
    12.722400000 12.477000000 20.013500000     0.078601522  0.080147500  0.049966291

 FORCES acting on ions:
    Electron-Ion                     Ewald-Force                    Non-Local-Force
   0.555E+01 0.208E+01 -.134E+02   -.579E+01 -.221E+01 0.135E+02   0.319E+00 0.728E-01 -.385E-01
   -.349E+00 -.139E+01 -.111E+02   0.359E+00 0.141E+01 0.112E+02   0.424E-01 -.683E-01 -.261E-01
   0.868E+01 0.156E+01 -.102E+02   -.888E+01 -.154E+01 0.102E+02   0.126E+00 0.496E-02 0.167E-01
   0.150E+02 0.696E+01 -.166E+02   -.154E+02 -.719E+01 0.166E+02   0.400E+00 0.251E+00 0.197E-01
   0.163E+02 -.313E+01 -.139E+02   -.167E+02 0.300E+01 0.139E+02   0.419E+00 0.530E-01 -.311E-01
   0.325E+01 -.461E+01 -.129E+02   -.325E+01 0.499E+01 0.129E+02   0.157E+00 -.223E+00 -.170E-01
   0.639E+01 -.904E+00 -.116E+02   -.680E+01 0.117E+01 0.115E+02   0.384E+00 -.246E+00 0.271E-01
   0.407E+02 -.974E+01 -.116E+02   -.442E+02 0.103E+02 0.116E+02   0.365E+01 -.508E+00 -.343E-01
   0.149E+02 -.451E+01 -.107E+02   -.150E+02 0.515E+01 0.110E+02   0.327E+00 -.361E+00 -.325E+00
   0.281E+01 -.226E+01 -.583E+01   -.280E+01 0.221E+01 0.579E+01   0.173E+00 -.283E-01 0.300E-01
   0.465E+01 -.598E+01 -.110E+02   -.507E+01 0.612E+01 0.110E+02   0.555E-01 -.135E+00 -.620E-01
   0.403E+02 -.148E+02 0.915E+01   -.440E+02 0.146E+02 -.851E+01   0.323E+01 -.168E-01 -.532E+00
   0.238E+01 -.114E+01 0.109E+02   -.244E+01 0.794E+00 -.110E+02   0.192E+00 0.291E+00 0.169E+00
   0.153E+01 0.418E+01 -.659E+01   -.153E+01 -.449E+01 0.660E+01   0.175E+00 0.260E+00 -.230E-01
   0.141E+01 0.219E+01 -.266E+01   -.163E+01 -.227E+01 0.274E+01   0.243E-01 0.948E-01 -.719E-01
   0.223E+02 0.160E+02 0.813E+01   -.260E+02 -.165E+02 -.782E+01   0.350E+01 0.515E+00 -.337E+00
   0.870E+01 0.639E+01 -.807E+01   -.905E+01 -.648E+01 0.812E+01   0.406E+00 0.424E-02 -.843E-01
   -.148E+01 0.395E+01 -.970E+01   0.147E+01 -.399E+01 0.974E+01   0.339E-01 0.584E-01 -.322E-01
   0.501E+01 0.296E+01 -.886E+01   -.541E+01 -.331E+01 0.889E+01   0.343E+00 0.263E+00 -.266E-01
   0.109E+02 0.268E+01 -.112E+02   -.112E+02 -.244E+01 0.111E+02   0.357E+00 -.126E+00 0.769E-01
   -.567E+01 0.629E+01 -.266E+02   0.531E+01 -.629E+01 0.266E+02   0.300E+00 0.672E-01 -.391E-01
   0.786E+01 0.140E+02 -.269E+02   -.792E+01 -.147E+02 0.270E+02   0.905E-01 0.562E+00 -.654E-01
   0.566E+01 0.630E+01 -.265E+02   -.530E+01 -.630E+01 0.266E+02   -.300E+00 0.668E-01 -.392E-01
   -.787E+01 0.141E+02 -.269E+02   0.793E+01 -.147E+02 0.270E+02   -.902E-01 0.562E+00 -.657E-01
   0.225E+01 0.334E+02 -.300E+02   -.358E+01 -.362E+02 0.302E+02   0.129E+01 0.287E+01 -.289E+00
   -.226E+01 0.334E+02 -.300E+02   0.359E+01 -.363E+02 0.302E+02   -.129E+01 0.287E+01 -.290E+00
   0.125E+02 -.320E+01 -.334E+01   -.140E+02 0.621E+01 0.396E+01   0.126E+01 -.273E+01 -.583E+00
   0.491E+01 -.669E+00 -.182E+02   -.488E+01 0.103E+01 0.184E+02   0.152E-01 -.485E+00 -.147E+00
   -.125E+02 -.322E+01 -.333E+01   0.140E+02 0.623E+01 0.395E+01   -.126E+01 -.273E+01 -.583E+00
   -.492E+01 -.683E+00 -.182E+02   0.489E+01 0.104E+01 0.184E+02   -.144E-01 -.484E+00 -.147E+00
   -.867E+01 0.155E+01 -.102E+02   0.887E+01 -.153E+01 0.102E+02   -.126E+00 0.600E-02 0.164E-01
   -.150E+02 0.694E+01 -.167E+02   0.154E+02 -.717E+01 0.166E+02   -.401E+00 0.252E+00 0.194E-01
   -.556E+01 0.211E+01 -.134E+02   0.580E+01 -.224E+01 0.135E+02   -.317E+00 0.705E-01 -.388E-01
   0.353E+00 -.137E+01 -.111E+02   -.364E+00 0.140E+01 0.112E+02   -.430E-01 -.684E-01 -.259E-01
   -.638E+01 -.910E+00 -.116E+02   0.679E+01 0.118E+01 0.115E+02   -.385E+00 -.245E+00 0.270E-01
   -.408E+02 -.975E+01 -.116E+02   0.442E+02 0.103E+02 0.116E+02   -.365E+01 -.504E+00 -.345E-01
   -.163E+02 -.313E+01 -.139E+02   0.167E+02 0.300E+01 0.139E+02   -.420E+00 0.533E-01 -.306E-01
   -.325E+01 -.460E+01 -.129E+02   0.325E+01 0.498E+01 0.129E+02   -.157E+00 -.224E+00 -.168E-01
   -.467E+01 -.599E+01 -.110E+02   0.509E+01 0.614E+01 0.110E+02   -.557E-01 -.133E+00 -.611E-01
   -.403E+02 -.148E+02 0.913E+01   0.440E+02 0.146E+02 -.849E+01   -.323E+01 -.191E-01 -.531E+00
   -.149E+02 -.448E+01 -.107E+02   0.149E+02 0.512E+01 0.110E+02   -.328E+00 -.362E+00 -.326E+00
   -.282E+01 -.223E+01 -.583E+01   0.281E+01 0.218E+01 0.580E+01   -.172E+00 -.310E-01 0.303E-01
   -.140E+01 0.215E+01 -.269E+01   0.162E+01 -.224E+01 0.277E+01   -.253E-01 0.949E-01 -.721E-01
   -.224E+02 0.160E+02 0.808E+01   0.260E+02 -.165E+02 -.776E+01   -.350E+01 0.515E+00 -.338E+00
   -.239E+01 -.116E+01 0.108E+02   0.246E+01 0.822E+00 -.110E+02   -.192E+00 0.291E+00 0.169E+00
   -.153E+01 0.421E+01 -.661E+01   0.153E+01 -.451E+01 0.662E+01   -.174E+00 0.257E+00 -.230E-01
   -.499E+01 0.295E+01 -.890E+01   0.539E+01 -.329E+01 0.892E+01   -.343E+00 0.264E+00 -.268E-01
   -.109E+02 0.264E+01 -.112E+02   0.112E+02 -.240E+01 0.111E+02   -.359E+00 -.125E+00 0.777E-01
   -.872E+01 0.642E+01 -.810E+01   0.908E+01 -.651E+01 0.816E+01   -.405E+00 0.184E-02 -.844E-01
   0.148E+01 0.396E+01 -.972E+01   -.147E+01 -.400E+01 0.975E+01   -.332E-01 0.586E-01 -.323E-01
   0.179E+02 -.366E+02 -.208E+02   -.828E+01 0.538E+02 0.206E+02   -.940E+01 -.164E+02 0.337E+00
   -.179E+02 -.366E+02 -.209E+02   0.829E+01 0.538E+02 0.206E+02   0.941E+01 -.164E+02 0.333E+00
   -.198E+02 -.564E+02 0.875E+02   0.335E+02 0.591E+02 -.905E+02   -.123E+02 -.152E+01 0.269E+01
   0.197E+02 -.564E+02 0.874E+02   -.334E+02 0.591E+02 -.905E+02   0.123E+02 -.152E+01 0.269E+01
   -.388E+02 0.807E+02 0.473E+02   0.496E+02 -.992E+02 -.502E+02   -.982E+01 0.172E+02 0.262E+01
   0.389E+02 0.807E+02 0.473E+02   -.497E+02 -.992E+02 -.503E+02   0.983E+01 0.172E+02 0.262E+01
   0.665E-01 -.313E+02 0.602E+02   -.657E-01 0.280E+02 -.587E+02   -.245E-02 0.809E+00 -.109E+01
   0.445E-02 -.435E+02 0.216E+03   -.631E-02 0.459E+02 -.211E+03   0.281E-03 -.631E+00 -.573E+01
   0.245E-02 0.744E+00 -.395E+00   0.172E-12 -.711E-13 0.114E-12   -.119E-02 -.558E+00 -.380E+00

 POSITION                                       TOTAL-FORCE (eV/Angst)
      2.81408     12.46746     10.09404         0.086945     -0.052624     -0.002960
      0.70326      1.24838     10.09716         0.048983     -0.049394     -0.003754
      1.39430     12.46811     10.08986        -0.064271      0.027705     -0.002082
      3.52096      1.23229     10.11019         0.024506      0.037504     -0.003373
      2.85025      2.48844     10.09023        -0.027169     -0.079435     -0.001234
      0.70779      3.74153     10.07937         0.166475      0.145011     -0.024940
      1.41631      2.49801     10.09129        -0.004132      0.012465     -0.000007
      3.60887      3.71507     10.04683         0.363605      0.028923     -0.042251
      2.87918      4.96407     10.00798         0.287211      0.266566     -0.050510
      0.71425      6.22772     10.02260         0.190350     -0.081101     -0.005394
      1.43858      4.97771     10.04494        -0.363869     -0.002758     -0.017631
      3.59087      6.21145      9.87783        -0.243779     -0.202511      0.071000
      2.88431      7.48606      9.91828         0.137233     -0.040752      0.005907
      0.70830      8.71160     10.02656         0.185850     -0.027355     -0.014012
      1.44254      7.47624      9.99484        -0.203390      0.016287      0.006172
      3.59539      8.74741      9.91689         0.063172      0.038894     -0.042556
      2.84143      9.97106     10.01914         0.069771     -0.078297     -0.037263
      0.70217     11.21224     10.07397         0.018957      0.028039      0.002121
      1.41155      9.96020     10.04530        -0.037387     -0.071588     -0.005389
      3.51861     11.22968     10.06084         0.027082      0.101778      0.000975
      7.05500     -0.00449     10.12395        -0.052296      0.068881     -0.003472
      4.93898      1.22685     10.13317         0.038008     -0.063465     -0.025390
      5.64760     -0.00447     10.12391         0.052440      0.068393     -0.003456
      7.76365      1.22685     10.13325        -0.035788     -0.066499     -0.025617
      7.06628      2.44998     10.11392         0.037648      0.174297     -0.081508
      5.63642      2.45004     10.11387        -0.039165      0.167117     -0.081364
      7.06857     10.02334      9.95671        -0.130544      0.127909      0.001528
      4.93987     11.24488     10.06412         0.046267     -0.157282     -0.025879
      5.63437     10.02335      9.95668         0.129832      0.129863      0.002141
      7.76306     11.24481     10.06418        -0.042750     -0.155119     -0.025855
     11.30871     12.46808     10.08998         0.063129      0.029875     -0.002394
      9.18171      1.23224     10.11031        -0.026992      0.040722     -0.003523
      9.88887     12.46750     10.09417        -0.083369     -0.058569     -0.003281
     11.99944      1.24838     10.09720        -0.049952     -0.051124     -0.003719
     11.28643      2.49798     10.09134         0.001987      0.013729      0.000021
      9.09382      3.71499     10.04698        -0.363297      0.033385     -0.042632
      9.85245      2.48842     10.09032         0.027160     -0.080581     -0.000889
     11.99494      3.74153     10.07937        -0.165880      0.143542     -0.024657
     11.26417      4.97766     10.04496         0.364795      0.000720     -0.016902
      9.11198      6.21149      9.87799         0.243442     -0.206752      0.071043
      9.82364      4.96410     10.00815        -0.290356      0.265295     -0.051376
     11.98852      6.22780     10.02264        -0.188856     -0.087203     -0.005087
     11.26031      7.47620      9.99498         0.200667      0.019224      0.005808
      9.10742      8.74739      9.91708        -0.056853      0.039461     -0.043125
      9.81849      7.48597      9.91848        -0.136028     -0.036936      0.005642
     11.99455      8.71165     10.02664        -0.184373     -0.031878     -0.014091
     11.29140      9.96014     10.04544         0.034199     -0.067337     -0.005485
      9.18439     11.22960     10.06092        -0.031259      0.108196      0.001831
      9.86144      9.97110     10.01931        -0.066446     -0.085273     -0.037455
     12.00078     11.21222     10.07404        -0.018743      0.027605      0.001953
      5.00216      3.67486     10.03967        -0.605750     -0.653427      0.111642
      7.70053      3.67497     10.03983         0.608920     -0.660336      0.111520
      4.91416      6.20798      9.68754         0.326625      1.038108     -0.170920
      7.78858      6.20789      9.68766        -0.324615      1.038380     -0.170542
      4.98314      8.81351      9.81561         0.120907      0.131583     -0.084235
      7.71985      8.81344      9.81561        -0.126998      0.133378     -0.084056
      6.35148      5.04378      9.81537        -0.000545     -1.688025      0.149145
      6.35148      7.34008      9.23733        -0.001316      0.332789      0.741817
    total drift:                                0.001879      0.002311      0.010663

  FREE ENERGIE OF THE ION-ELECTRON SYSTEM (eV)
  free  energy   TOTEN  =      -610.92097555 eV

  energy  without entropy=     -610.92097538  energy(sigma->0) =     -610.92097546

 stress matrix after NEB project (eV)
    -45.89672     -0.02975      0.00033
     -0.02976    -45.17633     -0.57215
      0.00020     -0.57178     -0.91020
  FORCES: max atom, RMS     1.694601    0.403959
  FORCE total and by dimension    3.076457    1.688025
  Stress total and by dimension   64.411911   45.896721
 writing wavefunctions

 total charge

[...]

 magnetization (x)

# of ion       s       p       d       tot
    1       -0.000  -0.003   0.000  -0.003
    2       -0.000  -0.003   0.000  -0.003
    3        0.000   0.003   0.000   0.003
    4        0.000   0.003   0.000   0.003
    5       -0.000  -0.002   0.000  -0.002
    6       -0.000  -0.003   0.000  -0.003
    7        0.000   0.002   0.000   0.002
    8        0.000   0.002   0.000   0.002
    9       -0.000   0.000   0.000   0.000
   10        0.000   0.002   0.000   0.002
   11        0.000   0.002   0.000   0.002
   12       -0.000  -0.002   0.000  -0.002
   13        0.000   0.005   0.000   0.005
   14       -0.000  -0.003   0.000  -0.003
   15       -0.000  -0.000   0.000  -0.000
   16        0.000   0.004   0.000   0.004
   17       -0.000  -0.004   0.000  -0.004
   18       -0.000  -0.002   0.000  -0.002
   19        0.000   0.002   0.000   0.003
   20        0.000   0.003   0.000   0.004
   21       -0.000  -0.001   0.000  -0.001
   22       -0.000  -0.001   0.000  -0.001
   23        0.000   0.001   0.000   0.002
   24        0.000   0.001   0.000   0.001
   25        0.000   0.001   0.000   0.001
   26       -0.000  -0.001   0.000  -0.001
   27       -0.000  -0.005   0.000  -0.005
   28       -0.000  -0.001   0.000  -0.002
   29        0.000   0.005   0.000   0.005
   30        0.000   0.002   0.000   0.002
   31       -0.000  -0.003   0.000  -0.003
   32       -0.000  -0.003   0.000  -0.003
   33        0.000   0.003   0.000   0.003
   34        0.000   0.003   0.000   0.003
   35       -0.000  -0.002   0.000  -0.002
   36       -0.000  -0.001   0.000  -0.001
   37        0.000   0.002   0.000   0.002
   38        0.000   0.003   0.000   0.003
   39       -0.000  -0.002   0.000  -0.002
   40        0.000   0.002   0.000   0.002
   41        0.000  -0.000   0.000  -0.000
   42       -0.000  -0.002   0.000  -0.002
   43        0.000   0.000   0.000   0.000
   44       -0.000  -0.004   0.000  -0.004
   45       -0.000  -0.004   0.000  -0.004
   46        0.000   0.003   0.000   0.003
   47       -0.000  -0.002   0.000  -0.003
   48       -0.000  -0.004   0.000  -0.004
   49        0.000   0.004   0.000   0.004
   50        0.000   0.002   0.000   0.002
   51        0.001   0.003   0.000   0.004
   52       -0.001  -0.003   0.000  -0.003
   53        0.000   0.011   0.000   0.011
   54       -0.000  -0.010   0.000  -0.010
   55       -0.000  -0.001   0.000  -0.001
   56        0.000   0.002   0.000   0.002
   57        0.000  -0.000   0.001   0.001
   58       -0.000  -0.000  -0.007  -0.008
tot          0.000   0.004  -0.006  -0.002