 vasp.5.4.4.18Apr17-6-g9f103f2a35 (build Feb 25 2019 10:51:38) complex

 executed on             LinuxIFC date 2021.03.10  03:51:10

 INCAR:
 POTCAR:    PAW_PBE C 08Apr2002
 POTCAR:    PAW_PBE N 08Apr2002
 POTCAR:    PAW_PBE Fe 06Sep2000
 POTCAR:    PAW_PBE Co 02Aug2007

 POTCAR:    PAW_PBE C 08Apr2002
   VRHFIN =C: s2p2

   TITEL  = PAW_PBE C 08Apr2002
   POMASS =   12.011; ZVAL   =    4.000    mass and valenz
   ENMAX  =  400.000; ENMIN  =  300.000 eV

 POTCAR:    PAW_PBE N 08Apr2002
   VRHFIN =N: s2p3

   TITEL  = PAW_PBE N 08Apr2002
   POMASS =   14.001; ZVAL   =    5.000    mass and valenz
   ENMAX  =  400.000; ENMIN  =  300.000 eV

 POTCAR:    PAW_PBE Fe 06Sep2000
   VRHFIN =Fe:  d7 s1

   TITEL  = PAW_PBE Fe 06Sep2000
   POMASS =   55.847; ZVAL   =    8.000    mass and valenz
   ENMAX  =  267.882; ENMIN  =  200.911 eV

 POTCAR:    PAW_PBE Co 02Aug2007
   VRHFIN =Co: d8 s1

   TITEL  = PAW_PBE Co 02Aug2007
   POMASS =   58.933; ZVAL   =    9.000    mass and valenz
   ENMAX  =  267.968; ENMIN  =  200.976 eV

  PAW_PBE C 08Apr2002                   :
  PAW_PBE N 08Apr2002                   :
  PAW_PBE Fe 06Sep2000                  :
  PAW_PBE Co 02Aug2007                  :

 POSCAR:  C  N Fe Co
  positions in cartesian coordinates
 exchange correlation table for  LEXCH =        8
   RHO(1)=    0.500       N(1)  =     2000
   RHO(2)=  100.500       N(2)  =     4000

 VTST: version 3.2, (02/03/18)

 CHAIN: initializing optimizer

 OPT: Using VASP Conjugate-Gradient optimizer
 CHAIN: Read ICHAIN            0

 POSCAR:  C  N Fe Co
  positions in cartesian coordinates

 ion  position               nearest neighbor table
   1  0.223  0.003  0.498-  19 1.43   4 1.43   3 1.43
   2  0.058  0.102  0.497-   3 1.42   7 1.44  38 1.44
   3  0.112  0.002  0.497-   2 1.42  17 1.43   1 1.43
   4  0.280  0.104  0.500-  21 1.43   1 1.43   5 1.44
   5  0.227  0.206  0.500-   7 1.44   4 1.44   8 1.45
   6  0.059  0.302  0.498-   7 1.43  11 1.43  42 1.43
   7  0.115  0.203  0.498-   6 1.43   2 1.44   5 1.44
   8  0.284  0.309  0.501-  25 1.45   5 1.45   9 1.45
   9  0.226  0.409  0.501-  55 1.38  11 1.44   8 1.45
  10  0.056  0.501  0.497-  14 1.42  46 1.42  11 1.43
  11  0.115  0.403  0.498-   6 1.43  10 1.43   9 1.44
  12  0.218  0.603  0.498-  55 1.38  14 1.40  15 1.42
  13  0.053  0.702  0.495-  18 1.41  50 1.42  14 1.42
  14  0.109  0.603  0.496-  12 1.40  10 1.42  13 1.42
  15  0.273  0.704  0.499-  58 1.38  16 1.41  12 1.42
  16  0.219  0.803  0.497-  15 1.41  19 1.42  18 1.42
  17  0.054  0.902  0.496-  18 1.42   3 1.43  54 1.43
  18  0.109  0.802  0.496-  13 1.41  17 1.42  16 1.42
  19  0.277  0.902  0.499-  16 1.42  32 1.43   1 1.43
  20  0.555  0.995  0.500-  22 1.43  23 1.43  34 1.44
  21  0.391  0.101  0.500-   4 1.43  26 1.43  22 1.45
  22  0.445  0.998  0.500-  20 1.43  32 1.43  21 1.45
  23  0.612  0.096  0.499-  24 1.43  20 1.43  36 1.43
  24  0.558  0.197  0.499-  27 1.42  26 1.43  23 1.43
  25  0.396  0.305  0.502-  56 1.38   8 1.45  26 1.45
  26  0.448  0.201  0.500-  24 1.43  21 1.43  25 1.45
  27  0.616  0.296  0.498-  28 1.41  24 1.42  40 1.42
  28  0.562  0.395  0.500-  56 1.38  27 1.41  29 1.42
  29  0.618  0.495  0.500-  57 1.38  44 1.40  28 1.42
  30  0.609  0.690  0.501-  57 1.38  48 1.44  31 1.45
  31  0.551  0.791  0.501-  33 1.45  34 1.45  30 1.45
  32  0.388  0.898  0.500-  19 1.43  22 1.43  33 1.45
  33  0.439  0.794  0.502-  58 1.38  31 1.45  32 1.45
  34  0.608  0.893  0.500-  52 1.44  20 1.44  31 1.45
  35  0.889  0.999  0.496-  54 1.42  38 1.43  37 1.44
  36  0.723  0.097  0.498-  37 1.42  41 1.43  23 1.43
  37  0.777  0.997  0.497-  36 1.42  52 1.44  35 1.44
  38  0.946  0.099  0.497-  39 1.42  35 1.43   2 1.44
  39  0.892  0.199  0.497-  38 1.42  42 1.43  41 1.43
  40  0.726  0.296  0.497-  45 1.41  41 1.42  27 1.42
  41  0.781  0.197  0.497-  40 1.42  36 1.43  39 1.43
  42  0.948  0.300  0.497-  43 1.42  39 1.43   6 1.43
  43  0.892  0.398  0.496-  46 1.42  45 1.42  42 1.42
  44  0.726  0.496  0.497-  29 1.40  49 1.42  45 1.42
  45  0.782  0.396  0.497-  40 1.41  43 1.42  44 1.42
  46  0.946  0.499  0.496-  43 1.42  10 1.42  47 1.43
  47  0.889  0.599  0.496-  50 1.42  49 1.42  46 1.43
  48  0.721  0.695  0.498-  53 1.43  49 1.43  30 1.44
  49  0.779  0.597  0.497-  44 1.42  47 1.42  48 1.43
  50  0.943  0.700  0.495-  47 1.42  13 1.42  51 1.42
  51  0.887  0.799  0.496-  50 1.42  54 1.43  53 1.43
  52  0.720  0.896  0.498-  53 1.43  37 1.44  34 1.44
  53  0.776  0.797  0.497-  52 1.43  48 1.43  51 1.43
  54  0.944  0.900  0.496-  35 1.42  51 1.43  17 1.43
  55  0.276  0.510  0.502-  12 1.38   9 1.38  59 1.90
  56  0.456  0.401  0.504-  28 1.38  25 1.38  59 1.92
  57  0.560  0.589  0.503-  29 1.38  30 1.38  59 1.90
  58  0.380  0.699  0.503-  15 1.38  33 1.38  59 1.92
  59  0.418  0.551  0.514-  55 1.90  57 1.90  58 1.92  56 1.92  60 2.15
  60  0.420  0.561  0.622-  59 2.15

  LATTYP: Found a triclinic cell.
 ALAT       =    12.2966000000
 B/A-ratio  =     1.4377908688
 C/A-ratio  =     2.2141298814
 COS(alpha) =     0.0101942360
 COS(beta)  =     0.5001088667
 COS(gamma) =     0.6846169898

  Lattice vectors:

 A1 = (  -0.1837689738,  12.2952267374,   0.0000000000)
 A2 = (  12.7046310262,  12.2952267374,   0.0000000000)
 A3 = ( -12.6101482908,  13.4291436692, -20.0477432967)

Analysis of symmetry for initial positions (statically):
 Subroutine PRICEL returns:
 Original cell was already a primitive cell.

 Routine SETGRP: Setting up the symmetry group for a
 triclinic supercell.

 Subroutine GETGRP returns: Found  1 space group operations
 (whereof  1 operations were pure point group operations)
 out of a pool of  2 trial point group operations.

The static configuration has the point symmetry C_1 .

Analysis of symmetry for dynamics (positions and initial velocities):
 Subroutine PRICEL returns:
 Original cell was already a primitive cell.

[...]

The dynamic configuration has the point symmetry C_1 .

Analysis of structural, dynamic, and magnetic symmetry:
 Subroutine PRICEL returns:
 Original cell was already a primitive cell.

 Routine SETGRP: Setting up the symmetry group for a
 triclinic supercell.

 Subroutine GETGRP returns: Found  1 space group operations
 (whereof  1 operations were pure point group operations)
 out of a pool of  2 trial point group operations.

The magnetic configuration has the point symmetry C_1 .

 Subroutine INISYM returns: Found  1 space group operations
 (whereof  1 operations are pure point group operations),
 and found     1 'primitive' translations

 KPOINTS: KPOINTS created by Atomic Simulation Env

Automatic generation of k-mesh.
Space group operators:
 irot       det(A)        alpha          n_x          n_y          n_z        tau_x        tau_y        tau_z
    1     1.000000     0.000000     1.000000     0.000000     0.000000     0.000000     0.000000     0.000000

 Subroutine IBZKPT returns following result:

 Found      2 irreducible k-points:

 Following reciprocal coordinates:
            Coordinates               Weight
  0.250000  0.250000  0.000000      2.000000
 -0.250000  0.250000 -0.000000      2.000000

 Following cartesian coordinates:
            Coordinates               Weight
  0.019397  0.020623  0.001613      2.000000
 -0.019397  0.020043  0.000687      2.000000

 Subroutine IBZKPT_HF returns following result:

 Found      4 k-points in 1st BZ
 the following      4 k-points will be used (e.g. in the exchange kernel)
 Following reciprocal coordinates:   # in IRBZ
  0.250000  0.250000  0.000000    0.25000000   1 t-inv F
 -0.250000  0.250000 -0.000000    0.25000000   2 t-inv F
 -0.250000 -0.250000  0.000000    0.25000000   1 t-inv T
  0.250000 -0.250000  0.000000    0.25000000   2 t-inv T

 SYSTEM =  unknown system
 POSCAR =   C  N Fe Co

 Startparameter for this run:
   NWRITE =      2    write-flag & timer
   PREC   = accura    normal or accurate (medium, high low for compatibility)
   ISTART =      1    job   : 0-new  1-cont  2-samecut
   ICHARG =      0    charge: 1-file 2-atom 10-const
   ISPIN  =      2    spin polarized calculation?
   LNONCOLLINEAR =      F non collinear calculations
   LSORBIT =      F    spin-orbit coupling
   INIWAV =      1    electr: 0-lowe 1-rand  2-diag
   LASPH  =      T    aspherical Exc in radial PAW
   METAGGA=      F    non-selfconsistent MetaGGA calc.

 Electronic Relaxation 1
   ENCUT  =  500.0 eV  36.75 Ry    6.06 a.u.  23.50 22.42 36.62*2*pi/ulx,y,z
   ENINI  =  500.0     initial cutoff
   ENAUG  =  644.9 eV  augmentation charge cutoff
   NELM   =    250;   NELMIN=  2; NELMDL=  0     # of ELM steps
   EDIFF  = 0.1E-03   stopping-criterion for ELM
   LREAL  =      F    real-space projection
   NLSPLINE    = F    spline interpolate recip. space projectors
   LCOMPAT=      F    compatible to vasp.4.4
   GGA_COMPAT  = T    GGA compatible to vasp.4.4-vasp.4.6
   LMAXPAW     = -100 max onsite density
   LMAXMIX     =    2 max onsite mixed and CHGCAR
   VOSKOWN=      0    Vosko Wilk Nusair interpolation
   ROPT   =    0.00000   0.00000   0.00000   0.00000
 Ionic relaxation
   EDIFFG = -.3E-01   stopping-criterion for IOM
   NSW    =      0    number of steps for IOM
   NBLOCK =      1;   KBLOCK =      1    inner block; outer block
   IBRION =     -1    ionic relax: 0-MD 1-quasi-New 2-CG
   NFREE  =      1    steps in history (QN), initial steepest desc. (CG)
   ISIF   =      2    stress and relaxation
   IWAVPR =     10    prediction:  0-non 1-charg 2-wave 3-comb
   ISYM   =      3    0-nonsym 1-usesym 2-fastsym
   LCORR  =      T    Harris-Foulkes like correction to forces

   POTIM  = 0.5000    time-step for ionic-motion
   TEIN   =    0.0    initial temperature
   TEBEG  =    0.0;   TEEND  =   0.0 temperature during run
   SMASS  =  -3.00    Nose mass-parameter (am)
   estimated Nose-frequenzy (Omega)   =  0.10E-29 period in steps =****** mass=  -0.380E-26a.u.
   SCALEE = 1.0000    scale energy and forces
   NPACO  =    256;   APACO  = 16.0  distance and # of slots for P.C.
   PSTRESS=    0.0 pullay stress

  Mass of Ions in am
   POMASS =  12.01 14.00 55.85 58.93
  Ionic Valenz
   ZVAL   =   4.00  5.00  8.00  9.00
  Atomic Wigner-Seitz radii
  virtual crystal weights
   VCA    =   1.00  1.00  1.00  1.00
   NELECT =     253.0000    total number of electrons
   NUPDOWN=      -1.0000    fix difference up-down

 DOS related values:
   EMIN   =  10.00;   EMAX   =-10.00  energy-range for DOS
   EFERMI =   0.00
   ISMEAR =     0;   SIGMA  =   0.10  broadening in eV -4-tet -1-fermi 0-gaus

 Electronic relaxation 2 (details)
   IALGO  =     53    algorithm
   LDIAG  =      T    sub-space diagonalisation (order eigenvalues)
   LSUBROT=      F    optimize rotation matrix (better conditioning)
   TURBO    =      0    0=normal 1=particle mesh
   IRESTART =      0    0=no restart 2=restart with 2 vectors
   NREBOOT  =      0    no. of reboots
   NMIN     =      0    reboot dimension
   EREF     =   0.00    reference energy to select bands
   IMIX   =      4    mixing-type and parameters
     AMIX     =   0.40;   BMIX     =  1.00
     AMIX_MAG =   1.60;   BMIX_MAG =  1.00
     AMIN     =   0.10
     WC   =   100.;   INIMIX=   1;  MIXPRE=   1;  MAXMIX= -45

 Intra band minimization:
[...]
   48        0.863   1.764   0.000   2.628
   49        0.870   1.782   0.000   2.652
   50        0.871   1.782   0.000   2.653
   51        0.866   1.769   0.000   2.635
   52        0.862   1.764   0.000   2.626
   53        0.866   1.766   0.000   2.632
   54        0.868   1.774   0.000   2.642
   55        1.232   2.663   0.000   3.895
   56        1.234   2.658   0.000   3.892
   57        1.232   2.662   0.000   3.894
   58        1.234   2.658   0.000   3.892
   59        0.496   0.695   6.426   7.618
   60        0.451   0.072   7.362   7.886
tot         52.582 106.803  13.789 173.173

 magnetization (x)

[...]

  FORCE on cell =-STRESS in cart. coord.  units (eV):
  Direction    XX          YY          ZZ          XY          YZ          ZX
  Alpha Z   105.80953   105.80953   105.80953
  Ewald   49722.54844 49754.67971-58086.40290    31.41900    -2.52802    -0.73971
  Hartree 49269.97064 49269.86762-48252.22069    -7.00667    -2.42478     0.36636
  E(xc)    -739.95685  -739.72004  -754.13616     0.22126     0.00097    -0.00080
  Local  ************************103020.32326   -14.45201     4.91100     0.30713
  n-local  -139.85592  -139.71082  -138.24192     0.77519    -0.03026     0.06773
  augment   168.74842   168.60646   169.46032    -0.11112     0.00097     0.00207
  Kinetic  3738.51514  3729.24373  4258.28293   -14.09396     0.06720     0.00878
  Fock     -351.12886  -351.04325  -321.32390    -0.12398     0.00093    -0.00371
  Total     -40.60608   -39.72842     1.55046    -3.37229    -0.00200     0.00785
  in kB     -20.47862   -20.03599     0.78194    -1.70072    -0.00101     0.00396

 VOLUME and BASIS-vectors are now :
  energy-cutoff  :      500.00
  volume of cell :     3176.88
      direct lattice vectors                 reciprocal lattice vectors
    12.888400000  0.000000000  0.000000000     0.077589150  0.001159676  0.001853713
    -0.183768974 12.295226737  0.000000000     0.000000000  0.081332376  0.004600226
    -0.462020683 -1.133916932 20.047743297     0.000000000  0.000000000  0.049880926

  length of vectors
    12.888400000 12.296600000 20.085100000     0.077619954  0.081462368  0.049880926

 FORCES acting on ions:
    Electron-Ion                     Ewald-Force                    Non-Local-Force
   0.555E+01 -.850E+01 0.829E+01   -.577E+01 0.880E+01 -.833E+01   0.195E+00 -.263E+00 0.248E-01
   0.489E+01 -.234E+01 0.982E+01   -.484E+01 0.232E+01 -.984E+01   -.436E-01 -.136E-01 0.374E-01
   0.367E+01 -.433E+01 0.105E+02   -.373E+01 0.437E+01 -.105E+02   0.452E-01 -.107E-01 -.122E-01
   0.686E+01 0.583E+00 0.501E+01   -.700E+01 -.528E+00 -.499E+01   0.123E+00 -.865E-01 -.258E-01
   0.663E+01 0.994E+01 0.553E+01   -.668E+01 -.977E+01 -.558E+01   -.132E-01 -.170E+00 0.351E-01
   0.840E+01 0.111E+02 0.116E+02   -.838E+01 -.114E+02 -.117E+02   -.369E-01 0.296E+00 0.464E-01
   0.347E+01 0.104E+02 0.749E+01   -.335E+01 -.106E+02 -.747E+01   -.670E-01 0.103E+00 -.234E-01
   0.182E+02 0.301E+02 0.899E+01   -.182E+02 -.301E+02 -.904E+01   -.202E-02 -.363E-01 0.284E-01
   0.334E+02 0.591E+02 0.204E+02   -.347E+02 -.622E+02 -.204E+02   0.130E+01 0.319E+01 0.169E-01
   0.197E+02 0.106E+02 0.173E+02   -.201E+02 -.108E+02 -.173E+02   0.342E+00 0.167E+00 -.275E-01
   0.180E+02 0.201E+02 0.162E+02   -.182E+02 -.204E+02 -.162E+02   0.164E+00 0.241E+00 0.183E-02
   0.585E+02 -.261E+02 0.417E+02   -.603E+02 0.287E+02 -.420E+02   0.174E+01 -.261E+01 0.269E+00
   0.166E+02 -.740E+01 0.245E+02   -.167E+02 0.777E+01 -.246E+02   0.134E+00 -.304E+00 0.350E-01
   0.342E+02 -.765E+01 0.275E+02   -.346E+02 0.796E+01 -.275E+02   0.462E+00 -.236E+00 0.167E-01
   0.537E+02 -.405E+02 0.396E+02   -.569E+02 0.407E+02 -.399E+02   0.323E+01 -.135E+00 0.278E+00
   0.226E+02 -.286E+02 0.252E+02   -.231E+02 0.289E+02 -.253E+02   0.471E+00 -.298E+00 0.599E-01
   0.879E+01 -.111E+02 0.163E+02   -.887E+01 0.113E+02 -.164E+02   0.498E-01 -.115E+00 0.296E-01
   0.133E+02 -.156E+02 0.227E+02   -.137E+02 0.156E+02 -.227E+02   0.339E+00 -.712E-01 0.724E-02
   0.646E+01 -.260E+02 0.123E+02   -.650E+01 0.264E+02 -.122E+02   0.787E-01 -.412E+00 -.428E-01
   -.682E+01 -.548E+00 0.579E+01   0.696E+01 0.495E+00 -.576E+01   -.127E+00 0.844E-01 -.184E-01
   0.512E+00 0.983E+01 0.689E+01   -.730E+00 -.997E+01 -.693E+01   0.218E+00 0.140E+00 0.380E-01
   -.533E+00 -.988E+01 0.711E+01   0.752E+00 0.100E+02 -.715E+01   -.221E+00 -.145E+00 0.392E-01
   -.555E+01 0.831E+01 0.777E+01   0.577E+01 -.861E+01 -.780E+01   -.203E+00 0.269E+00 0.313E-01
   -.650E+01 0.259E+02 0.106E+02   0.655E+01 -.263E+02 -.106E+02   -.860E-01 0.421E+00 -.434E-01
   0.301E+02 0.612E+02 0.162E+02   -.321E+02 -.638E+02 -.162E+02   0.218E+01 0.277E+01 0.182E-01
   0.650E+01 0.236E+02 0.113E+02   -.659E+01 -.239E+02 -.113E+02   0.111E+00 0.265E+00 0.333E-01
   -.227E+02 0.285E+02 0.207E+02   0.232E+02 -.287E+02 -.207E+02   -.468E+00 0.296E+00 0.558E-01
   -.540E+02 0.405E+02 0.345E+02   0.572E+02 -.406E+02 -.348E+02   -.323E+01 0.137E+00 0.239E+00
   -.585E+02 0.259E+02 0.359E+02   0.603E+02 -.285E+02 -.361E+02   -.174E+01 0.262E+01 0.229E+00
   -.333E+02 -.585E+02 0.199E+02   0.346E+02 0.616E+02 -.199E+02   -.129E+01 -.319E+01 0.272E-01
   -.183E+02 -.297E+02 0.943E+01   0.184E+02 0.297E+02 -.948E+01   0.214E-02 0.210E-01 0.383E-01
   -.660E+01 -.238E+02 0.115E+02   0.670E+01 0.241E+02 -.115E+02   -.120E+00 -.263E+00 0.205E-01
   -.305E+02 -.609E+02 0.162E+02   0.326E+02 0.635E+02 -.162E+02   -.217E+01 -.277E+01 0.509E-02
   -.667E+01 -.976E+01 0.692E+01   0.672E+01 0.960E+01 -.696E+01   0.672E-02 0.172E+00 0.316E-01
   0.243E+01 -.427E+01 0.119E+02   -.245E+01 0.433E+01 -.119E+02   0.195E-01 -.374E-01 0.186E-01
   -.365E+01 0.423E+01 0.909E+01   0.372E+01 -.425E+01 -.908E+01   -.485E-01 0.195E-01 -.123E-01
   -.492E+01 0.241E+01 0.100E+02   0.487E+01 -.238E+01 -.100E+02   0.400E-01 0.122E-01 0.164E-01
   -.242E+01 0.427E+01 0.110E+02   0.244E+01 -.432E+01 -.110E+02   -.216E-01 0.372E-01 0.148E-01
   -.199E+01 0.467E+01 0.120E+02   0.199E+01 -.473E+01 -.120E+02   -.286E-01 0.540E-01 0.151E-01
   -.133E+02 0.156E+02 0.170E+02   0.136E+02 -.156E+02 -.169E+02   -.343E+00 0.670E-01 -.151E-01
   -.870E+01 0.110E+02 0.127E+02   0.878E+01 -.111E+02 -.128E+02   -.481E-01 0.121E+00 0.337E-01
   -.290E+01 0.912E+01 0.129E+02   0.297E+01 -.920E+01 -.130E+02   -.538E-01 0.903E-01 0.376E-01
   -.448E+01 0.845E+01 0.144E+02   0.454E+01 -.848E+01 -.144E+02   -.305E-01 0.341E-01 -.853E-02
   -.340E+02 0.758E+01 0.230E+02   0.344E+02 -.787E+01 -.230E+02   -.460E+00 0.236E+00 0.587E-03
   -.164E+02 0.739E+01 0.189E+02   0.166E+02 -.777E+01 -.190E+02   -.132E+00 0.296E+00 0.349E-01
   0.432E+01 0.430E+00 0.149E+02   -.442E+01 -.441E+00 -.150E+02   0.163E+00 -.438E-01 0.892E-02
   -.407E+01 -.460E+00 0.164E+02   0.417E+01 0.482E+00 -.165E+02   -.157E+00 0.462E-01 0.228E-02
   -.176E+02 -.198E+02 0.189E+02   0.178E+02 0.201E+02 -.189E+02   -.166E+00 -.245E+00 0.399E-01
   -.193E+02 -.106E+02 0.179E+02   0.197E+02 0.107E+02 -.179E+02   -.334E+00 -.167E+00 -.120E-01
   0.464E+01 -.835E+01 0.194E+02   -.470E+01 0.838E+01 -.194E+02   0.378E-01 -.338E-01 0.130E-01
   0.307E+01 -.906E+01 0.173E+02   -.313E+01 0.914E+01 -.173E+02   0.551E-01 -.917E-01 0.348E-01
   -.340E+01 -.103E+02 0.100E+02   0.329E+01 0.104E+02 -.100E+02   0.689E-01 -.102E+00 -.385E-02
   -.819E+01 -.109E+02 0.154E+02   0.816E+01 0.112E+02 -.155E+02   0.324E-01 -.303E+00 0.486E-01
   0.206E+01 -.470E+01 0.151E+02   -.205E+01 0.477E+01 -.152E+02   0.275E-01 -.501E-01 0.121E-01
   0.288E+02 0.437E+02 0.476E+02   -.870E+01 -.428E+02 -.468E+02   -.190E+02 -.876E+00 -.618E+00
   0.234E+02 0.465E+02 0.374E+02   -.332E+02 -.285E+02 -.365E+02   0.930E+01 -.171E+02 -.742E+00
   -.292E+02 -.433E+02 0.422E+02   0.911E+01 0.425E+02 -.414E+02   0.190E+02 0.877E+00 -.733E+00
   -.244E+02 -.466E+02 0.391E+02   0.343E+02 0.286E+02 -.382E+02   -.929E+01 0.171E+02 -.829E+00
   -.205E+01 0.792E-01 0.380E+02   0.210E+01 -.737E-01 -.392E+02   -.519E-03 -.332E-02 -.109E+01
   0.239E+01 -.106E+01 -.106E+04   -.229E+01 0.105E+01 0.105E+04   -.106E+00 0.115E-01 0.828E+01
   0.204E+00 0.235E+00 -.583E+01   0.421E-12 -.497E-13 0.227E-12   -.109E+00 -.675E-02 0.605E+01

 POSITION                                       TOTAL-FORCE (eV/Angst)
      2.64229     -0.52935      9.99252        -0.015616      0.022086     -0.009664
      0.49758      0.68626      9.96822         0.012421     -0.049457      0.017003
      1.21161     -0.54222      9.96684        -0.021778      0.026670     -0.003460
      3.35878      0.70796     10.01593        -0.006408     -0.044246     -0.004206
      2.65594      1.96443     10.02203        -0.065366     -0.021026     -0.010499
      0.48144      3.14689      9.97682        -0.016973      0.020817      0.006871
      1.21911      1.92743      9.99101         0.045014     -0.012740     -0.006040
      3.37461      3.22563     10.05359        -0.018791     -0.042148     -0.015999
      2.61199      4.46290     10.03835         0.092263      0.277007      0.033113
      0.39686      5.59788      9.96283        -0.051641      0.000952     -0.009557
      1.17254      4.39603      9.98832        -0.043558     -0.048850     -0.021164
      2.46568      6.85492      9.99338         0.023269     -0.103085      0.059243
      0.33058      8.06856      9.92895         0.016413      0.057520      0.020284
      1.06331      6.84678      9.95136         0.097252      0.048564      0.011128
      3.16345      8.09269     10.00335         0.163136      0.011577      0.051804
      2.44869      9.30766      9.96763        -0.011725     -0.054716      0.018201
      0.30597     10.52207      9.94133        -0.029620     -0.000103      0.012006
      1.02641      9.29945      9.93724        -0.030628     -0.051655      0.006992
      3.17313     10.52827      9.99612         0.030463     -0.030548     -0.005555
      6.74490     11.67124     10.01389        -0.002321      0.036498      0.002681
      4.78602      0.67078     10.02103         0.005954      0.012398     -0.003861
      5.31770     11.70851     10.01911        -0.010421     -0.016824      0.003158
      7.64532      0.61285      9.99848         0.007360     -0.012372     -0.004156
      6.93059      1.85038     10.00805        -0.038372      0.042018     -0.007961
      4.82164      3.18672     10.06255         0.212609      0.260615      0.020462
      5.50462      1.90696     10.02728         0.031131     -0.067897     -0.001323
      7.65457      3.07133      9.99041         0.017890      0.050268      0.009391
      6.93949      4.28621     10.02421        -0.168952     -0.010519      0.042023
      7.63714      5.52365     10.01440        -0.034839      0.137530      0.042918
      7.49062      7.91666     10.03854        -0.093210     -0.294841      0.026111
      6.72833      9.15436     10.04897         0.018085      0.010579     -0.011330
      4.59902     10.47216     10.02150        -0.042129      0.074350     -0.014214
      5.28125      9.19271     10.05692        -0.205610     -0.265188      0.007814
      7.44752     10.41472     10.01523         0.056343      0.028881     -0.003486
     11.04148     11.71972      9.95007         0.010917      0.012556      0.007074
      9.07582      0.62557      9.97556         0.019527     -0.011551     -0.001252
      9.60595     11.69274      9.96638        -0.011982      0.038863     -0.001256
     11.95039      0.65925      9.95512        -0.009253     -0.015324      0.002143
     11.22570      1.88096      9.95496        -0.036526     -0.013468      0.010508
      9.07696      3.07959      9.96461         0.022885      0.040965     -0.006929
      9.79737      1.85669      9.96094         0.031173      0.011059      0.008805
     11.93600      3.11982      9.95729         0.001945      0.012128      0.015654
     11.19172      4.33362      9.95243         0.032986      0.008385     -0.007194
      9.03937      5.53196      9.97050        -0.101030     -0.038804     -0.001705
      9.77225      4.31055      9.95528        -0.017745     -0.070105      0.013178
     11.86848      5.57821      9.95094         0.069061     -0.067728     -0.009258
     11.12222      6.80069      9.94453        -0.062518      0.073785     -0.014785
      8.93013      7.98327      9.97915         0.035017      0.044900      0.007353
      9.70547      6.78105      9.96259         0.056140      0.004761      0.009058
     11.79912      8.04536      9.93034        -0.019646     -0.012187      0.015761
     11.05520      9.25933      9.93593         0.002186     -0.016317      0.018099
      8.88401     10.45164      9.98013        -0.035744      0.014208      0.012121
      9.62155      9.23244      9.96011         0.006481     -0.035450      0.017661
     11.76598     10.49788      9.93779         0.034467      0.020885      0.006635
      3.22713      5.70261     10.07122        -0.590333     -0.095503      0.111377
      5.56486      4.35417     10.09957         0.256590     -0.588249      0.113540
      6.87513      6.67693     10.08325         0.602186      0.096969      0.092303
      4.53740      8.02524     10.09011        -0.254196      0.588201      0.098409
      5.04964      6.19007     10.30727         0.038132     -0.001288     -1.776603
      5.02901      6.19276     12.46172        -0.002365      0.006194      1.000577
    total drift:                                0.092382      0.227938      0.033928

  FREE ENERGIE OF THE ION-ELECTRON SYSTEM (eV)
  free  energy   TOTEN  =      -630.32428787 eV

  energy  without entropy=     -630.32428787  energy(sigma->0) =     -630.32428787

 stress matrix after NEB project (eV)
    -40.60608     -3.37188      0.00785
     -3.37229    -39.72842     -0.00203
      0.00758     -0.00200      1.55046
  FORCES: max atom, RMS     1.777013    0.326472
  FORCE total and by dimension    2.528844    1.776603
  Stress total and by dimension   57.029355   40.606079
 writing wavefunctions
 vacuum level on the upper side and lower side of the slab         1.346         1.668

 total charge

[...]

 magnetization (x)

# of ion       s       p       d       tot
    1        0.000   0.001   0.000   0.001
    2        0.000  -0.000   0.000  -0.000
    3       -0.000  -0.002   0.000  -0.002
    4       -0.000  -0.001   0.000  -0.001
    5        0.000   0.001   0.000   0.001
    6       -0.000  -0.001   0.000  -0.001
    7       -0.000  -0.002   0.000  -0.002
    8       -0.000  -0.003   0.000  -0.003
    9       -0.000  -0.005   0.000  -0.005
   10       -0.000  -0.003   0.000  -0.003
   11        0.000   0.001   0.000   0.001
   12        0.000   0.002   0.000   0.002
   13        0.000   0.001   0.000   0.001
   14       -0.000  -0.001   0.000  -0.002
   15       -0.000  -0.002   0.000  -0.002
   16       -0.000  -0.000   0.000  -0.000
   17        0.000   0.000   0.000   0.000
   18       -0.000  -0.001   0.000  -0.002
   19       -0.000  -0.003   0.000  -0.003
   20       -0.000  -0.001   0.000  -0.001
   21       -0.000  -0.001   0.000  -0.001
   22       -0.000  -0.001   0.000  -0.001
   23        0.000   0.001   0.000   0.001
   24       -0.000  -0.003   0.000  -0.003
   25       -0.000  -0.006   0.000  -0.007
   26        0.000   0.001   0.000   0.002
   27       -0.000  -0.000   0.000  -0.000
   28       -0.000  -0.002   0.000  -0.003
   29        0.000   0.002   0.000   0.002
   30       -0.000  -0.005   0.000  -0.005
   31       -0.000  -0.003   0.000  -0.003
   32        0.000   0.001   0.000   0.001
   33       -0.000  -0.006   0.000  -0.007
   34        0.000   0.001   0.000   0.001
   35        0.000  -0.000   0.000  -0.000
   36       -0.000  -0.002   0.000  -0.002
   37        0.000  -0.000   0.000  -0.000
   38        0.000  -0.000   0.000   0.000
   39       -0.000  -0.001   0.000  -0.001
   40       -0.000  -0.001   0.000  -0.002
   41        0.000   0.000   0.000   0.000
   42        0.000  -0.000   0.000  -0.000
   43       -0.000  -0.002   0.000  -0.002
   44       -0.000  -0.001   0.000  -0.002
   45        0.000   0.001   0.000   0.001
   46        0.000  -0.000   0.000  -0.000
   47        0.000  -0.000   0.000  -0.000
   48        0.000   0.001   0.000   0.001
   49       -0.000  -0.003   0.000  -0.003
   50       -0.000  -0.002   0.000  -0.002
   51        0.000  -0.000   0.000  -0.000
   52       -0.000  -0.002   0.000  -0.002
   53       -0.000  -0.001   0.000  -0.001
   54       -0.000  -0.001   0.000  -0.001
   55       -0.004  -0.025   0.000  -0.029
   56       -0.004  -0.019   0.000  -0.023
   57       -0.004  -0.025   0.000  -0.029
   58       -0.004  -0.019   0.000  -0.022
   59        0.006   0.004   1.390   1.400
   60       -0.128   0.006   2.085   1.962
tot         -0.140  -0.136   3.475   3.199