 vasp.5.4.4.18Apr17-6-g9f103f2a35 (build Feb 25 2019 10:51:38) complex

 executed on             LinuxIFC date 2021.08.09  12:38:21

 INCAR:
 POTCAR:    PAW_PBE C 08Apr2002
 POTCAR:    PAW_PBE N 08Apr2002
 POTCAR:    PAW_PBE Fe 06Sep2000
 POTCAR:    PAW_PBE Cu 22Jun2005

 POTCAR:    PAW_PBE C 08Apr2002
   VRHFIN =C: s2p2

   TITEL  = PAW_PBE C 08Apr2002
   POMASS =   12.011; ZVAL   =    4.000    mass and valenz
   ENMAX  =  400.000; ENMIN  =  300.000 eV

 POTCAR:    PAW_PBE N 08Apr2002
   VRHFIN =N: s2p3

   TITEL  = PAW_PBE N 08Apr2002
   POMASS =   14.001; ZVAL   =    5.000    mass and valenz
   ENMAX  =  400.000; ENMIN  =  300.000 eV

 POTCAR:    PAW_PBE Fe 06Sep2000
   VRHFIN =Fe:  d7 s1

   TITEL  = PAW_PBE Fe 06Sep2000
   POMASS =   55.847; ZVAL   =    8.000    mass and valenz
   ENMAX  =  267.882; ENMIN  =  200.911 eV

 POTCAR:    PAW_PBE Cu 22Jun2005
   VRHFIN =Cu: d10 p1

   TITEL  = PAW_PBE Cu 22Jun2005
   POMASS =   63.546; ZVAL   =   11.000    mass and valenz
   ENMAX  =  295.446; ENMIN  =  221.585 eV

  PAW_PBE C 08Apr2002                   :
  PAW_PBE N 08Apr2002                   :
  PAW_PBE Fe 06Sep2000                  :
  PAW_PBE Cu 22Jun2005                  :

 POSCAR:  C  N Fe Cu
  positions in cartesian coordinates
 exchange correlation table for  LEXCH =        8
   RHO(1)=    0.500       N(1)  =     2000
   RHO(2)=  100.500       N(2)  =     4000

 VTST: version 3.2, (02/03/18)

 CHAIN: initializing optimizer

 OPT: Using VASP Conjugate-Gradient optimizer
 CHAIN: Read ICHAIN            0

 POSCAR:  C  N Fe Cu
  positions in cartesian coordinates

 ion  position               nearest neighbor table
   1  0.221  0.999  0.500-   4 1.42  19 1.43   3 1.44
   2  0.052  0.101  0.500-   7 1.42   3 1.43  34 1.44
   3  0.110  0.001  0.500-  17 1.42   2 1.43   1 1.44
   4  0.275  0.099  0.500-   1 1.42   5 1.42  21 1.43
   5  0.218  0.199  0.500-   8 1.41   4 1.42   7 1.43
   6  0.052  0.301  0.500-   7 1.41  11 1.43  38 1.43
   7  0.107  0.200  0.500-   6 1.41   2 1.42   5 1.43
   8  0.272  0.298  0.500-  51 1.38   5 1.41   9 1.42
   9  0.218  0.400  0.500-  50 1.40  11 1.41   8 1.42
  10  0.055  0.502  0.500-  11 1.41  41 1.42  14 1.43
  11  0.109  0.400  0.500-   9 1.41  10 1.41   6 1.43
  12  0.226  0.595  0.500-  50 1.38  14 1.44  15 1.47
  13  0.058  0.701  0.500-  18 1.42  14 1.43  45 1.43
  14  0.114  0.600  0.500-  13 1.43  10 1.43  12 1.44
  15  0.284  0.697  0.500-  53 1.37  16 1.44  12 1.47
  16  0.224  0.798  0.500-  19 1.43  18 1.44  15 1.44
  17  0.055  0.901  0.500-   3 1.42  18 1.43  49 1.44
  18  0.113  0.800  0.500-  13 1.42  17 1.43  16 1.44
  19  0.278  0.898  0.500-  16 1.43   1 1.43  28 1.43
  20  0.553  0.002  0.500-  22 1.43  30 1.43  23 1.45
  21  0.386  0.101  0.500-   4 1.43  22 1.43  25 1.45
  22  0.443  0.000  0.500-  20 1.43  21 1.43  28 1.44
  23  0.606  0.105  0.500-  24 1.44  32 1.44  20 1.45
  24  0.549  0.206  0.500-  23 1.44  25 1.44  26 1.46
  25  0.438  0.205  0.500-  51 1.38  24 1.44  21 1.45
  26  0.605  0.309  0.500-  52 1.34  36 1.46  24 1.46
  27  0.558  0.795  0.500-  54 1.37  30 1.45  29 1.49
  28  0.389  0.898  0.500-  19 1.43  22 1.44  29 1.45
  29  0.443  0.793  0.500-  53 1.37  28 1.45  27 1.49
  30  0.609  0.900  0.500-  20 1.43  47 1.44  27 1.45
  31  0.886  0.003  0.500-  34 1.42  49 1.43  33 1.44
  32  0.718  0.106  0.500-  33 1.43  37 1.44  23 1.44
  33  0.775  0.004  0.500-  47 1.43  32 1.43  31 1.44
  34  0.941  0.103  0.500-  31 1.42  35 1.43   2 1.44
  35  0.885  0.204  0.500-  38 1.43  34 1.43  37 1.44
  36  0.718  0.309  0.500-  37 1.44  40 1.45  26 1.46
  37  0.773  0.207  0.500-  36 1.44  32 1.44  35 1.44
  38  0.941  0.303  0.500-  39 1.42  35 1.43   6 1.43
  39  0.888  0.404  0.500-  38 1.42  41 1.43  40 1.44
  40  0.776  0.409  0.500-  55 1.36  39 1.44  36 1.45
  41  0.945  0.503  0.500-  42 1.42  10 1.42  39 1.43
  42  0.891  0.604  0.500-  44 1.41  41 1.42  45 1.42
  43  0.723  0.705  0.500-  54 1.38  48 1.42  44 1.44
  44  0.782  0.604  0.500-  55 1.36  42 1.41  43 1.44
  45  0.947  0.703  0.500-  42 1.42  46 1.42  13 1.43
  46  0.890  0.803  0.500-  49 1.42  45 1.42  48 1.44
  47  0.721  0.903  0.500-  48 1.42  33 1.43  30 1.44
  48  0.778  0.804  0.500-  43 1.42  47 1.42  46 1.44
  49  0.944  0.903  0.500-  46 1.42  31 1.43  17 1.44
  50  0.276  0.495  0.499-  12 1.38   9 1.40  56 1.93
  51  0.379  0.300  0.499-  25 1.38   8 1.38  56 1.94
  52  0.549  0.402  0.500-  26 1.34  56 1.77  57 1.81
  53  0.390  0.697  0.500-  29 1.37  15 1.37
  54  0.616  0.701  0.500-  27 1.37  43 1.38  57 1.96
  55  0.729  0.509  0.501-  40 1.36  44 1.36  57 1.93
  56  0.420  0.452  0.499-  52 1.77  50 1.93  51 1.94  57 2.41
  57  0.582  0.545  0.501-  52 1.81  55 1.93  54 1.96  56 2.41

  LATTYP: Found a triclinic cell.
 ALAT       =    12.8959806808
 B/A-ratio  =     0.9515719622
 C/A-ratio  =     1.5568561621
 COS(alpha) =     0.0004575464
 COS(beta)  =     0.0014205327
 COS(gamma) =     0.0154677169

  Lattice vectors:

 A1 = (  12.8956021219,   0.0983565312,   0.0094670939)
 A2 = (   0.0962211759,  12.2710758922,   0.0035194116)
 A3 = (   0.0137564809,   0.0033204127,  20.0771820024)

Analysis of symmetry for initial positions (statically):
 Subroutine PRICEL returns:
 Original cell was already a primitive cell.

 Routine SETGRP: Setting up the symmetry group for a
 triclinic supercell.

 Subroutine GETGRP returns: Found  1 space group operations
 (whereof  1 operations were pure point group operations)
 out of a pool of  2 trial point group operations.

The static configuration has the point symmetry C_1 .

Analysis of symmetry for dynamics (positions and initial velocities):
 Subroutine PRICEL returns:
 Original cell was already a primitive cell.

[...]

The dynamic configuration has the point symmetry C_1 .

Analysis of structural, dynamic, and magnetic symmetry:
 Subroutine PRICEL returns:
 Original cell was already a primitive cell.

 Routine SETGRP: Setting up the symmetry group for a
 triclinic supercell.

 Subroutine GETGRP returns: Found  1 space group operations
 (whereof  1 operations were pure point group operations)
 out of a pool of  2 trial point group operations.

The magnetic configuration has the point symmetry C_1 .

 Subroutine INISYM returns: Found  1 space group operations
 (whereof  1 operations are pure point group operations),
 and found     1 'primitive' translations

 KPOINTS: KPOINTS created by Atomic Simulation Env

Automatic generation of k-mesh.
Space group operators:
 irot       det(A)        alpha          n_x          n_y          n_z        tau_x        tau_y        tau_z
    1     1.000000     0.000000     1.000000     0.000000     0.000000     0.000000     0.000000     0.000000

 Subroutine IBZKPT returns following result:

 Found      2 irreducible k-points:

 Following reciprocal coordinates:
            Coordinates               Weight
  0.250000  0.250000  0.000000      2.000000
 -0.250000  0.250000  0.000000      2.000000

 Following cartesian coordinates:
            Coordinates               Weight
  0.019232  0.020222 -0.000017      2.000000
 -0.019543  0.020526  0.000010      2.000000

 Subroutine IBZKPT_HF returns following result:

 Found      4 k-points in 1st BZ
 the following      4 k-points will be used (e.g. in the exchange kernel)
 Following reciprocal coordinates:   # in IRBZ
  0.250000  0.250000  0.000000    0.25000000   1 t-inv F
 -0.250000  0.250000  0.000000    0.25000000   2 t-inv F
 -0.250000 -0.250000 -0.000000    0.25000000   1 t-inv T
  0.250000 -0.250000 -0.000000    0.25000000   2 t-inv T

 SYSTEM =  unknown system
 POSCAR =   C  N Fe Cu

 Startparameter for this run:
   NWRITE =      2    write-flag & timer
   PREC   = accura    normal or accurate (medium, high low for compatibility)
   ISTART =      1    job   : 0-new  1-cont  2-samecut
   ICHARG =      0    charge: 1-file 2-atom 10-const
   ISPIN  =      2    spin polarized calculation?
   LNONCOLLINEAR =      F non collinear calculations
   LSORBIT =      F    spin-orbit coupling
   INIWAV =      1    electr: 0-lowe 1-rand  2-diag
   LASPH  =      T    aspherical Exc in radial PAW
   METAGGA=      F    non-selfconsistent MetaGGA calc.

 Electronic Relaxation 1
   ENCUT  =  500.0 eV  36.75 Ry    6.06 a.u.  23.51 22.37 36.61*2*pi/ulx,y,z
   ENINI  =  500.0     initial cutoff
   ENAUG  =  644.9 eV  augmentation charge cutoff
   NELM   =    250;   NELMIN=  2; NELMDL=  0     # of ELM steps
   EDIFF  = 0.1E-03   stopping-criterion for ELM
   LREAL  =      F    real-space projection
   NLSPLINE    = F    spline interpolate recip. space projectors
   LCOMPAT=      F    compatible to vasp.4.4
   GGA_COMPAT  = T    GGA compatible to vasp.4.4-vasp.4.6
   LMAXPAW     = -100 max onsite density
   LMAXMIX     =    2 max onsite mixed and CHGCAR
   VOSKOWN=      0    Vosko Wilk Nusair interpolation
   ROPT   =    0.00000   0.00000   0.00000   0.00000
 Ionic relaxation
   EDIFFG = -.3E-01   stopping-criterion for IOM
   NSW    =      0    number of steps for IOM
   NBLOCK =      1;   KBLOCK =      1    inner block; outer block
   IBRION =     -1    ionic relax: 0-MD 1-quasi-New 2-CG
   NFREE  =      1    steps in history (QN), initial steepest desc. (CG)
   ISIF   =      2    stress and relaxation
   IWAVPR =     10    prediction:  0-non 1-charg 2-wave 3-comb
   ISYM   =      3    0-nonsym 1-usesym 2-fastsym
   LCORR  =      T    Harris-Foulkes like correction to forces

   POTIM  = 0.5000    time-step for ionic-motion
   TEIN   =    0.0    initial temperature
   TEBEG  =    0.0;   TEEND  =   0.0 temperature during run
   SMASS  =  -3.00    Nose mass-parameter (am)
   estimated Nose-frequenzy (Omega)   =  0.10E-29 period in steps =****** mass=  -0.380E-26a.u.
   SCALEE = 1.0000    scale energy and forces
   NPACO  =    256;   APACO  = 16.0  distance and # of slots for P.C.
   PSTRESS=    0.0 pullay stress

  Mass of Ions in am
   POMASS =  12.01 14.00 55.85 63.55
  Ionic Valenz
   ZVAL   =   4.00  5.00  8.00 11.00
  Atomic Wigner-Seitz radii
  virtual crystal weights
   VCA    =   1.00  1.00  1.00  1.00
   NELECT =     245.0000    total number of electrons
   NUPDOWN=      -1.0000    fix difference up-down

 DOS related values:
   EMIN   =  10.00;   EMAX   =-10.00  energy-range for DOS
   EFERMI =   0.00
   ISMEAR =     0;   SIGMA  =   0.10  broadening in eV -4-tet -1-fermi 0-gaus

 Electronic relaxation 2 (details)
   IALGO  =     53    algorithm
   LDIAG  =      T    sub-space diagonalisation (order eigenvalues)
   LSUBROT=      F    optimize rotation matrix (better conditioning)
   TURBO    =      0    0=normal 1=particle mesh
   IRESTART =      0    0=no restart 2=restart with 2 vectors
   NREBOOT  =      0    no. of reboots
   NMIN     =      0    reboot dimension
   EREF     =   0.00    reference energy to select bands
   IMIX   =      4    mixing-type and parameters
     AMIX     =   0.40;   BMIX     =  1.00
     AMIX_MAG =   1.60;   BMIX_MAG =  1.00
     AMIN     =   0.10
     WC   =   100.;   INIMIX=   1;  MIXPRE=   1;  MAXMIX= -45

 Intra band minimization:
   WEIMIN = 0.0000     energy-eigenvalue tresh-hold
   EBREAK =  0.16E-06  absolut break condition
   DEPER  =   0.30     relativ break condition

[...]
   27        0.850   1.694   0.000   2.544
   28        0.860   1.750   0.000   2.610
   29        0.850   1.699   0.000   2.549
   30        0.859   1.748   0.000   2.607
   31        0.865   1.771   0.000   2.636
   32        0.860   1.756   0.000   2.616
   33        0.862   1.760   0.000   2.623
   34        0.866   1.767   0.000   2.633
   35        0.864   1.764   0.000   2.628
   36        0.852   1.755   0.000   2.607
   37        0.861   1.742   0.000   2.603
   38        0.868   1.777   0.000   2.645
   39        0.867   1.778   0.000   2.645
   40        0.858   1.724   0.000   2.582
   41        0.869   1.782   0.000   2.651
   42        0.873   1.802   0.000   2.674
   43        0.861   1.747   0.000   2.608
   44        0.866   1.767   0.000   2.632
   45        0.867   1.782   0.000   2.650
   46        0.866   1.780   0.000   2.646
   47        0.867   1.759   0.000   2.626
   48        0.868   1.778   0.000   2.646
   49        0.866   1.770   0.000   2.636
   50        1.224   2.689   0.000   3.914
   51        1.229   2.676   0.000   3.905
   52        1.251   2.604   0.000   3.855
   53        1.246   2.605   0.000   3.851
   54        1.228   2.649   0.000   3.877
   55        1.233   2.696   0.000   3.929
   56        0.446   0.612   6.164   7.221
   57        0.443   0.486   9.219  10.149
tot         50.584 103.226  15.383 169.193

 magnetization (x)

[...]

  FORCE on cell =-STRESS in cart. coord.  units (eV):
  Direction    XX          YY          ZZ          XY          YZ          ZX
  Alpha Z    99.36633    99.36633    99.36633
  Ewald   48647.30896 48677.48530-57422.80492    44.91950    30.03074    77.48524
  Hartree 48296.35404 48301.76477-47480.91523    63.05956    28.31953    71.60729
  E(xc)    -729.14506  -728.96690  -743.43304    -0.23692    -0.03596     0.00138
  Local  -99588.93589-99619.35332101760.31262  -117.71294   -58.88520  -148.98917
  n-local   -86.78285   -92.12852   -80.68554    -0.32495     0.16450     0.05382
  augment   102.02309   103.21458   113.28865     1.13639     0.27461    -0.06397
  Kinetic  3622.23243  3623.72462  4146.42112    10.33327     0.30943    -0.19782
  Fock     -406.13273  -406.50972  -391.95420    -1.33521    -0.19042     0.09090
  Total     -43.71168   -41.40285    -0.40420    -0.16129    -0.01276    -0.01233
  in kB     -22.04485   -20.88046    -0.20385    -0.08134    -0.00643    -0.00622

 VOLUME and BASIS-vectors are now :
  energy-cutoff  :      500.00
  volume of cell :     3176.88
      direct lattice vectors                 reciprocal lattice vectors
    12.895602122  0.098356531  0.009467094     0.077550494 -0.000608081 -0.000053035
     0.096221176 12.271075892  0.003519412    -0.000621582  0.081497325 -0.000013052
     0.013756481  0.003320413 20.077182002    -0.000036459 -0.000013999  0.049807814

  length of vectors
    12.895980681 12.271453641 20.077186990     0.077552896  0.081499696  0.049807829

 FORCES acting on ions:
    Electron-Ion                     Ewald-Force                    Non-Local-Force
   0.277E+01 0.694E+01 -.124E+01   -.310E+01 -.692E+01 0.125E+01   0.371E+00 0.554E-01 -.116E-01
   0.542E+01 0.606E+01 -.107E+01   -.548E+01 -.626E+01 0.108E+01   0.744E-01 0.143E+00 -.546E-02
   -.228E+01 0.103E+01 -.100E+01   0.211E+01 -.107E+01 0.100E+01   0.330E-01 0.170E-01 -.264E-02
   0.117E+01 0.135E+02 -.479E+00   -.136E+01 -.139E+02 0.472E+00   0.975E-01 0.392E+00 0.481E-02
   0.139E+02 0.153E+02 -.439E+00   -.144E+02 -.155E+02 0.443E+00   0.480E+00 0.292E+00 -.642E-02
   0.608E+01 0.331E+01 -.590E+00   -.624E+01 -.372E+01 0.587E+00   0.194E+00 0.365E+00 -.262E-03
   0.331E+01 0.838E+01 -.112E+01   -.370E+01 -.846E+01 0.112E+01   0.383E+00 0.784E-01 -.841E-02
   0.370E+02 0.147E+02 0.121E+01   -.407E+02 -.150E+02 -.119E+01   0.352E+01 0.285E+00 -.189E-01
   0.271E+02 0.136E+02 0.125E+01   -.289E+02 -.164E+02 -.125E+01   0.196E+01 0.263E+01 0.149E-02
   0.126E+01 -.786E+01 0.313E+00   -.150E+01 0.799E+01 -.318E+00   0.603E-01 -.279E+00 0.577E-02
   0.118E+02 0.660E+01 0.189E+00   -.123E+02 -.695E+01 -.183E+00   0.542E+00 0.298E+00 -.515E-02
   -.349E+00 -.407E+02 0.114E+01   -.109E+01 0.443E+02 -.113E+01   0.123E+01 -.334E+01 -.653E-02
   -.357E+01 -.343E+01 0.747E+00   0.363E+01 0.385E+01 -.747E+00   -.394E-01 -.231E+00 0.401E-02
   -.129E+01 -.105E+02 0.684E+00   0.145E+01 0.109E+02 -.684E+00   0.176E+00 -.339E+00 -.146E-02
   0.217E+02 0.928E+01 0.853E+00   -.241E+02 -.892E+01 -.849E+00   0.227E+01 -.275E+00 0.641E-04
   0.565E+01 0.908E+00 -.989E-01   -.590E+01 -.136E+01 0.102E+00   0.258E+00 0.384E+00 -.443E-02
   0.126E+01 0.946E+00 -.145E-01   -.126E+01 -.832E+00 0.176E-01   -.316E-01 -.468E-03 -.209E-02
   -.604E+01 -.553E+01 0.333E+00   0.579E+01 0.553E+01 -.336E+00   0.175E+00 -.105E+00 0.359E-02
   0.804E+00 -.302E+01 -.802E+00   -.864E+00 0.313E+01 0.796E+00   0.680E-01 -.108E+00 0.130E-02
   -.323E+01 -.126E+01 0.271E+00   0.327E+01 0.156E+01 -.278E+00   0.762E-01 -.151E+00 0.470E-02
   -.489E+01 0.142E+02 0.276E+00   0.502E+01 -.150E+02 -.275E+00   -.643E-01 0.490E+00 0.118E-02
   0.156E+01 0.709E+01 -.315E+00   -.119E+01 -.704E+01 0.321E+00   -.446E+00 0.394E-01 -.855E-02
   -.168E+01 0.803E+01 0.781E+00   0.166E+01 -.832E+01 -.774E+00   -.222E-01 0.621E-01 -.543E-02
   -.908E+01 0.188E+02 0.175E+01   0.936E+01 -.189E+02 -.176E+01   -.145E+00 0.250E+00 0.143E-01
   -.222E+02 0.415E+02 0.177E+01   0.243E+02 -.443E+02 -.175E+01   -.236E+01 0.308E+01 -.157E-01
   -.306E+02 0.642E+02 0.489E+00   0.328E+02 -.676E+02 -.479E+00   -.216E+01 0.311E+01 -.968E-02
   0.399E+02 -.379E+02 -.379E+00   -.419E+02 0.407E+02 0.361E+00   0.235E+01 -.291E+01 0.174E-01
   -.501E+01 -.467E+01 -.645E+00   0.538E+01 0.477E+01 0.647E+00   -.381E+00 -.689E-01 -.515E-02
   -.177E+02 -.194E+02 -.793E-01   0.180E+02 0.213E+02 0.853E-01   -.791E+00 -.215E+01 -.725E-02
   0.851E+01 -.104E+02 -.155E+00   -.878E+01 0.110E+02 0.159E+00   0.243E+00 -.551E+00 -.628E-02
   0.222E+01 -.585E+00 0.459E+00   -.222E+01 0.598E+00 -.455E+00   0.116E-02 0.216E-01 0.110E-02
   -.532E+00 0.253E+01 0.506E+00   0.614E+00 -.248E+01 -.503E+00   -.382E-01 0.226E-02 0.326E-03
   -.866E+00 -.362E+01 0.646E+00   0.108E+01 0.401E+01 -.647E+00   -.143E+00 -.377E+00 0.439E-02
   -.116E+01 0.201E+01 -.287E+00   0.105E+01 -.212E+01 0.284E+00   0.915E-01 0.732E-01 0.406E-02
   0.321E+01 0.755E+01 -.535E+00   -.333E+01 -.777E+01 0.538E+00   0.494E-01 0.158E+00 -.361E-02
   -.956E+01 0.227E+02 -.109E+01   0.969E+01 -.227E+02 0.110E+01   -.214E+00 0.927E-01 -.150E-01
   -.305E+01 0.105E+02 -.208E+00   0.296E+01 -.105E+02 0.203E+00   0.138E+00 -.783E-01 0.517E-02
   -.257E+01 0.104E+02 -.647E+00   0.254E+01 -.106E+02 0.645E+00   -.253E-01 0.349E+00 0.107E-02
   -.118E+02 0.126E+02 -.763E+00   0.122E+02 -.129E+02 0.758E+00   -.277E+00 0.294E+00 0.656E-02
   -.267E+02 0.563E+02 -.169E+01   0.280E+02 -.598E+02 0.166E+01   -.148E+01 0.352E+01 0.264E-01
   -.139E+02 0.409E+01 -.476E+00   0.141E+02 -.419E+01 0.486E+00   -.619E-01 0.453E-01 -.892E-02
   -.223E+02 -.107E+02 -.387E+00   0.227E+02 0.112E+02 0.382E+00   -.532E+00 -.349E+00 0.638E-02
   -.399E+02 -.330E+02 -.142E+01   0.431E+02 0.333E+02 0.142E+01   -.335E+01 -.218E+00 -.240E-02
   -.460E+02 -.415E+02 -.200E+01   0.481E+02 0.443E+02 0.198E+01   -.195E+01 -.286E+01 0.107E-01
   -.130E+02 -.881E+01 0.558E+00   0.132E+02 0.913E+01 -.558E+00   -.271E+00 -.320E+00 0.375E-02
   -.338E+01 -.890E+01 0.603E+00   0.386E+01 0.899E+01 -.602E+00   -.435E+00 -.784E-01 0.342E-02
   0.482E+00 -.165E+02 0.246E+00   -.415E+00 0.169E+02 -.246E+00   -.579E-01 -.451E+00 0.101E-02
   -.150E+02 -.184E+02 -.274E-01   0.156E+02 0.188E+02 0.240E-01   -.556E+00 -.332E+00 0.317E-02
   -.586E+01 -.639E+01 0.637E+00   0.591E+01 0.650E+01 -.638E+00   0.882E-03 -.145E+00 0.564E-02
   -.335E+02 -.408E+02 0.219E+01   0.520E+02 0.408E+02 -.221E+01   -.178E+02 0.216E+00 0.249E-01
   -.195E+02 -.539E+00 0.521E+01   0.289E+02 0.161E+02 -.550E+01   -.876E+01 -.157E+02 0.284E+00
   0.391E+01 0.752E+02 0.838E+00   -.110E+02 -.649E+02 -.803E+00   0.715E+01 -.965E+01 -.153E-01
   -.416E+02 0.827E+02 0.146E+01   0.568E+02 -.109E+03 -.153E+01   -.141E+02 0.249E+02 0.644E-01
   0.497E+02 -.341E+02 -.202E+01   -.597E+02 0.163E+02 0.208E+01   0.944E+01 0.171E+02 -.612E-01
   -.275E+02 0.300E+02 -.543E+01   0.701E+01 -.299E+02 0.562E+01   0.193E+02 -.225E+00 -.192E+00
   0.814E+02 -.103E+03 0.102E+02   -.827E+02 0.100E+03 -.100E+02   0.617E+00 0.355E+01 -.196E+00
   0.122E+03 -.122E+03 -.101E+02   -.120E+03 0.121E+03 0.101E+02   -.204E+01 0.150E+01 0.472E-01
   0.741E+01 -.236E+02 0.681E-01   -.128E-12 0.156E-12 0.000E+00   -.715E+01 0.225E+02 -.640E-01

 POSITION                                       TOTAL-FORCE (eV/Angst)
      2.95076     12.28534     10.04689         0.064283      0.080700     -0.007451
      0.68888      1.24453     10.04272         0.029192     -0.043961     -0.004832
      1.41909      0.01987     10.04242        -0.138762     -0.027615     -0.005680
      3.56249      1.24557     10.04103        -0.092277     -0.044486     -0.001837
      2.83438      2.46708     10.03980        -0.066538      0.080601     -0.003471
      0.70594      3.69854     10.04157         0.048075     -0.030416     -0.002923
      1.40575      2.46954     10.04263         0.007064     -0.004207     -0.006173
      3.54818      3.68381     10.03344        -0.009121     -0.003584      0.000019
      2.85551      4.92817     10.03396         0.250220     -0.096225      0.000337
      0.76917      6.16275     10.03908        -0.173607     -0.170603      0.001802
      1.44456      4.92083     10.03836        -0.014431     -0.026802     -0.000043
      2.97226      7.32843     10.03555        -0.152253      0.024323      0.001986
      0.82122      8.61091     10.03862         0.023047      0.183492      0.003548
      1.53580      7.37512     10.03751         0.340251      0.100551     -0.001360
      3.73309      8.58843     10.03886        -0.019259      0.080345      0.003673
      2.97353      9.81533     10.04223         0.030123     -0.045607     -0.001636
      0.80566     11.06287     10.04219        -0.019823      0.119124      0.000896
      1.53645      9.83433     10.04062        -0.069070     -0.112167      0.001704
      3.68057     11.05370     10.04581         0.010370     -0.003850     -0.005553
      7.14380      0.07616     10.04212         0.114824      0.135858     -0.002152
      4.99166      1.27921     10.03891         0.056849     -0.202489      0.001667
      5.71848      0.04720     10.04202        -0.090125      0.090133     -0.003544
      7.83723      1.34505     10.04079        -0.039801     -0.229592      0.001479
      7.11149      2.58609     10.03716         0.131018      0.143530      0.009505
      5.66905      2.55696     10.03357        -0.393603      0.473400      0.000861
      7.83578      3.85800     10.04323        -0.067426     -0.111129      0.000298
      7.27608      9.81507     10.04977         0.458295     -0.226532      0.000576
      5.11348     11.05660     10.04636        -0.042326      0.029940     -0.003968
      5.79127      9.77786     10.04534        -0.477132     -0.377584     -0.001700
      7.95174     11.10289     10.04839        -0.008239     -0.002781     -0.002845
     11.43377      0.12467     10.04609         0.002705      0.037956      0.005147
      9.27607      1.36826     10.04399         0.042046      0.045886      0.003100
      9.99706      0.13107     10.04432         0.065268     -0.006709      0.004109
     12.14826      1.35539     10.04948        -0.014285     -0.034835      0.001080
     11.43308      2.58995     10.05038        -0.065178     -0.057684     -0.000357
      9.29091      3.86853     10.05071        -0.085042      0.068828     -0.007464
      9.99171      2.61593     10.04816         0.050717     -0.153647      0.000125
     12.17311      3.80931     10.05194        -0.056444      0.087943     -0.000675
     11.49248      5.05167     10.05348         0.088214     -0.084931      0.001921
     10.05764      5.10225     10.05630        -0.220222      0.261546     -0.001257
     12.24537      6.26646     10.05218         0.163353     -0.047030      0.000286
     11.55919      7.50687     10.05295        -0.193216      0.130375      0.001894
      9.39574      8.71924     10.05545        -0.264531      0.022614     -0.004273
     10.14811      7.49107     10.05810         0.081173     -0.186254     -0.003217
     12.28692      8.72355     10.04935        -0.051353     -0.015847      0.003761
     11.55718      9.94220     10.04912         0.024869      0.015648      0.004486
      9.38764     11.15625     10.04871         0.007639     -0.063056      0.000760
     10.12140      9.93952     10.05083         0.014775      0.012544      0.000001
     12.26363     11.17217     10.04928         0.045901     -0.044758      0.005386
      3.60986      6.10252     10.03249        -0.868852      0.194812      0.011190
      4.92867      3.71928     10.02700        -0.141920     -1.443422      0.025155
      7.12768      4.99456     10.04277         0.670365     -0.132157      0.018592
      5.10411      8.59317     10.04024        -0.092014      0.893272      0.004974
      8.01326      8.65845     10.05491         0.282097      0.735110     -0.002523
      9.45446      6.32028     10.06245         0.440112     -0.140262     -0.014960
      5.46422      5.58538     10.02688        -0.000836      0.271024     -0.015493
      7.56911      6.75083     10.05813         0.384841     -0.149334     -0.014929
    total drift:                                0.009927      0.003966     -0.002885

  FREE ENERGIE OF THE ION-ELECTRON SYSTEM (eV)
  free  energy   TOTEN  =      -592.15391192 eV

  energy  without entropy=     -592.15333687  energy(sigma->0) =     -592.15362440

 stress matrix after NEB project (eV)
    -43.71168     -0.16127     -0.01233
     -0.16129    -41.40285     -0.00749
     -0.01593     -0.01276     -0.40420
  FORCES: max atom, RMS     1.450600    0.357542
  FORCE total and by dimension    2.699383    1.443422
  Stress total and by dimension   60.208991   43.711676
 writing wavefunctions

 total charge

[...]

 magnetization (x)

# of ion       s       p       d       tot
    1        0.000   0.003   0.000   0.003
    2       -0.000  -0.002   0.000  -0.002
    3        0.000   0.002   0.000   0.003
    4        0.000   0.000   0.000   0.000
    5        0.000  -0.001   0.000  -0.001
    6        0.000   0.003   0.000   0.003
    7        0.000  -0.000   0.000  -0.000
    8        0.000   0.001   0.000   0.002
    9        0.001   0.000   0.000   0.001
   10       -0.001  -0.010   0.000  -0.010
   11        0.000   0.001   0.000   0.001
   12        0.001   0.004   0.000   0.005
   13        0.000   0.004   0.000   0.004
   14        0.000   0.002   0.000   0.003
   15       -0.001  -0.002   0.000  -0.003
   16        0.000   0.000   0.000   0.001
   17       -0.000  -0.001   0.000  -0.001
   18       -0.000  -0.000   0.000  -0.000
   19       -0.000  -0.000   0.000  -0.000
   20       -0.000   0.000   0.000   0.000
   21       -0.000  -0.003   0.000  -0.003
   22        0.001   0.007   0.000   0.008
   23       -0.000  -0.000   0.000  -0.000
   24       -0.000  -0.004   0.000  -0.004
   25        0.000   0.000   0.000   0.001
   26        0.003   0.013   0.000   0.015
   27        0.000   0.004   0.000   0.004
   28       -0.000  -0.003   0.000  -0.003
   29        0.000   0.005   0.000   0.005
   30       -0.000  -0.001   0.000  -0.001
   31        0.000   0.004   0.000   0.005
   32        0.000   0.004   0.000   0.005
   33        0.000   0.003   0.000   0.003
   34       -0.000   0.000   0.000   0.000
   35       -0.000  -0.001   0.000  -0.001
   36       -0.000   0.000   0.000  -0.000
   37       -0.000  -0.002   0.000  -0.003
   38        0.000   0.005   0.000   0.005
   39       -0.001  -0.008   0.000  -0.009
   40        0.000   0.006   0.000   0.006
   41        0.000   0.001   0.000   0.001
   42       -0.001  -0.004   0.000  -0.004
   43       -0.000   0.001   0.000   0.001
   44        0.001   0.007   0.000   0.007
   45        0.000   0.005   0.000   0.006
   46       -0.000  -0.000   0.000  -0.000
   47        0.000   0.002   0.000   0.002
   48       -0.000  -0.000   0.000  -0.000
   49       -0.000  -0.000   0.000  -0.000
   50       -0.005  -0.035   0.000  -0.039
   51        0.004   0.008   0.000   0.011
   52       -0.008  -0.116   0.000  -0.124
   53        0.006   0.028   0.000   0.033
   54       -0.000   0.014   0.000   0.013
   55       -0.011  -0.054   0.000  -0.065
   56        0.070   0.049   2.984   3.103
   57       -0.007   0.001  -0.221  -0.226
tot          0.055  -0.056   2.763   2.761