 vasp.5.4.4.18Apr17-6-g9f103f2a35 (build Feb 25 2019 10:51:38) complex

 executed on             LinuxIFC date 2021.06.16  07:44:22

 INCAR:
 POTCAR:    PAW_PBE C 08Apr2002
 POTCAR:    PAW_PBE N 08Apr2002
 POTCAR:    PAW_PBE Ni 02Aug2007
 POTCAR:    PAW_PBE Fe 06Sep2000

 POTCAR:    PAW_PBE C 08Apr2002
   VRHFIN =C: s2p2

   TITEL  = PAW_PBE C 08Apr2002
   POMASS =   12.011; ZVAL   =    4.000    mass and valenz
   ENMAX  =  400.000; ENMIN  =  300.000 eV

 POTCAR:    PAW_PBE N 08Apr2002
   VRHFIN =N: s2p3

   TITEL  = PAW_PBE N 08Apr2002
   POMASS =   14.001; ZVAL   =    5.000    mass and valenz
   ENMAX  =  400.000; ENMIN  =  300.000 eV

 POTCAR:    PAW_PBE Ni 02Aug2007
   VRHFIN =Ni:

   TITEL  = PAW_PBE Ni 02Aug2007
   POMASS =   58.690; ZVAL   =   10.000    mass and valenz
   ENMAX  =  269.532; ENMIN  =  202.149 eV

 POTCAR:    PAW_PBE Fe 06Sep2000
   VRHFIN =Fe:  d7 s1

   TITEL  = PAW_PBE Fe 06Sep2000
   POMASS =   55.847; ZVAL   =    8.000    mass and valenz
   ENMAX  =  267.882; ENMIN  =  200.911 eV

  PAW_PBE C 08Apr2002                   :
  PAW_PBE N 08Apr2002                   :
  PAW_PBE Ni 02Aug2007                  :
  PAW_PBE Fe 06Sep2000                  :

 POSCAR:  C  N Ni Fe
  positions in cartesian coordinates
 exchange correlation table for  LEXCH =        8
   RHO(1)=    0.500       N(1)  =     2000
   RHO(2)=  100.500       N(2)  =     4000

 VTST: version 3.2, (02/03/18)

 CHAIN: initializing optimizer

 OPT: Using VASP Conjugate-Gradient optimizer
 CHAIN: Read ICHAIN            0

 POSCAR:  C  N Ni Fe
  positions in cartesian coordinates

 ion  position               nearest neighbor table
   1  0.228  1.000  0.500-   3 1.46   4 1.46  18 1.46
   2  0.059  0.100  0.500-   7 1.42   3 1.43  33 1.45
   3  0.116  1.000  0.500-  16 1.43   2 1.43   1 1.46
   4  0.283  0.104  0.500-  20 1.45   5 1.45   1 1.46
   5  0.224  0.206  0.500-  50 1.38   7 1.45   4 1.45
   6  0.051  0.299  0.500-  10 1.40  37 1.42   7 1.43
   7  0.112  0.201  0.500-   2 1.42   6 1.43   5 1.45
   8  0.211  0.399  0.500-  50 1.37  10 1.40  11 1.41
   9  0.048  0.500  0.500-  41 1.41  14 1.42  10 1.42
  10  0.103  0.399  0.500-   8 1.40   6 1.40   9 1.42
  11  0.265  0.499  0.499-  54 1.34   8 1.41  12 1.42
  12  0.211  0.600  0.500-  51 1.38  14 1.40  11 1.42
  13  0.052  0.701  0.500-  14 1.41  45 1.42  17 1.43
  14  0.103  0.600  0.500-  12 1.40  13 1.41   9 1.42
  15  0.223  0.794  0.500-  51 1.39  17 1.45  18 1.46
  16  0.059  0.900  0.500-  17 1.42   3 1.43  49 1.45
  17  0.112  0.799  0.500-  16 1.42  13 1.43  15 1.45
  18  0.283  0.895  0.500-  28 1.45  15 1.46   1 1.46
  19  0.558  0.000  0.500-  22 1.42  29 1.42  21 1.43
  20  0.395  0.105  0.500-  52 1.39   4 1.45  21 1.46
  21  0.448  0.000  0.500-  19 1.43  28 1.45  20 1.46
  22  0.614  0.100  0.500-  23 1.42  19 1.42  31 1.43
  23  0.558  0.200  0.500-  52 1.38  22 1.42  24 1.44
  24  0.612  0.302  0.500-  53 1.40  35 1.42  23 1.44
  25  0.607  0.500  0.500-  53 1.39  55 1.40  39 1.45
  26  0.613  0.698  0.500-  55 1.40  43 1.41  27 1.44
  27  0.559  0.801  0.500-  56 1.38  29 1.42  26 1.44
  28  0.395  0.896  0.500-  56 1.40  21 1.45  18 1.45
  29  0.614  0.900  0.500-  27 1.42  19 1.42  47 1.43
  30  0.891  0.000  0.500-  33 1.42  49 1.42  32 1.44
  31  0.724  0.100  0.500-  36 1.41  32 1.42  22 1.43
  32  0.780  0.000  0.500-  47 1.42  31 1.42  30 1.44
  33  0.947  0.100  0.500-  30 1.42  34 1.43   2 1.45
  34  0.889  0.199  0.500-  37 1.41  33 1.43  36 1.43
  35  0.721  0.300  0.500-  40 1.42  24 1.42  36 1.43
  36  0.778  0.199  0.500-  31 1.41  35 1.43  34 1.43
  37  0.942  0.299  0.500-  34 1.41   6 1.42  38 1.43
  38  0.885  0.399  0.500-  41 1.42  40 1.42  37 1.43
  39  0.719  0.500  0.500-  40 1.42  44 1.43  25 1.45
  40  0.776  0.400  0.500-  35 1.42  38 1.42  39 1.42
  41  0.940  0.500  0.500-   9 1.41  38 1.42  42 1.42
  42  0.885  0.600  0.500-  41 1.42  44 1.42  45 1.43
  43  0.722  0.701  0.500-  26 1.41  44 1.42  48 1.43
  44  0.776  0.600  0.500-  43 1.42  42 1.42  39 1.43
  45  0.942  0.701  0.500-  46 1.41  13 1.42  42 1.43
  46  0.889  0.801  0.500-  45 1.41  49 1.43  48 1.43
  47  0.725  0.901  0.500-  48 1.41  32 1.42  29 1.43
  48  0.779  0.801  0.500-  47 1.41  43 1.43  46 1.43
  49  0.947  0.900  0.500-  30 1.42  46 1.43  16 1.45
  50  0.271  0.307  0.499-   8 1.37   5 1.38  57 1.91
  51  0.271  0.692  0.500-  12 1.38  15 1.39  58 1.93
  52  0.451  0.202  0.499-  23 1.38  20 1.39  57 1.93
  53  0.555  0.400  0.499-  25 1.39  24 1.40  57 1.95
  54  0.368  0.499  0.499-  11 1.34  57 1.87  58 1.87
  55  0.556  0.601  0.499-  25 1.40  26 1.40  58 1.94
  56  0.452  0.799  0.500-  27 1.38  28 1.40  58 1.96
  57  0.412  0.354  0.499-  54 1.87  50 1.91  52 1.93  53 1.95
  58  0.413  0.645  0.499-  54 1.87  51 1.93  55 1.94  56 1.96

  Warning from LATTYP: Got some problem with cell dimensions!
  Tried to take original basis but could not verify dimensions!
  LATTYP: Found a triclinic cell.
 ALAT       =    34.1639707408
 B/A-ratio  =     0.3582224119
 C/A-ratio  =     0.5856462105
 COS(alpha) =     0.0000383972
 COS(beta)  =     0.5855941833
 COS(gamma) =     0.7161663973

  Lattice vectors:

 A1 = (  12.9505147807, -24.4773572478, -20.0079995466)
 A2 = (  -0.0096973768, -12.2382961580,   0.0000000000)
 A3 = (  -0.0041904657,  -0.0007649319, -20.0079995466)

Analysis of symmetry for initial positions (statically):
 Subroutine PRICEL returns:
 Original cell was already a primitive cell.

 Routine SETGRP: Setting up the symmetry group for a
 triclinic supercell.

 Subroutine GETGRP returns: Found  1 space group operations
 (whereof  1 operations were pure point group operations)
 out of a pool of  2 trial point group operations.

The static configuration has the point symmetry C_1 .

Analysis of symmetry for dynamics (positions and initial velocities):
 Subroutine PRICEL returns:
 Original cell was already a primitive cell.

[...]

The dynamic configuration has the point symmetry C_1 .

Analysis of structural, dynamic, and magnetic symmetry:
 Subroutine PRICEL returns:
 Original cell was already a primitive cell.

 Routine SETGRP: Setting up the symmetry group for a
 triclinic supercell.

 Subroutine GETGRP returns: Found  1 space group operations
 (whereof  1 operations were pure point group operations)
 out of a pool of  2 trial point group operations.

The magnetic configuration has the point symmetry C_1 .

 Subroutine INISYM returns: Found  1 space group operations
 (whereof  1 operations are pure point group operations),
 and found     1 'primitive' translations

 KPOINTS: KPOINTS created by Atomic Simulation Env

Automatic generation of k-mesh.
Space group operators:
 irot       det(A)        alpha          n_x          n_y          n_z        tau_x        tau_y        tau_z
    1     1.000000     0.000000     1.000000     0.000000     0.000000     0.000000     0.000000     0.000000

 Subroutine IBZKPT returns following result:

 Found      2 irreducible k-points:

 Following reciprocal coordinates:
            Coordinates               Weight
  0.250000  0.250000  0.000000      2.000000
 -0.250000  0.250000  0.000000      2.000000

 Following cartesian coordinates:
            Coordinates               Weight
  0.019269  0.020412 -0.000005      2.000000
 -0.019269  0.020443  0.000003      2.000000

 Subroutine IBZKPT_HF returns following result:

 Found      4 k-points in 1st BZ
 the following      4 k-points will be used (e.g. in the exchange kernel)
 Following reciprocal coordinates:   # in IRBZ
  0.250000  0.250000  0.000000    0.25000000   1 t-inv F
 -0.250000  0.250000  0.000000    0.25000000   2 t-inv F
 -0.250000 -0.250000  0.000000    0.25000000   1 t-inv T
  0.250000 -0.250000 -0.000000    0.25000000   2 t-inv T

 SYSTEM =  unknown system
 POSCAR =   C  N Ni Fe

 Startparameter for this run:
   NWRITE =      2    write-flag & timer
   PREC   = accura    normal or accurate (medium, high low for compatibility)
   ISTART =      1    job   : 0-new  1-cont  2-samecut
   ICHARG =      0    charge: 1-file 2-atom 10-const
   ISPIN  =      2    spin polarized calculation?
   LNONCOLLINEAR =      F non collinear calculations
   LSORBIT =      F    spin-orbit coupling
   INIWAV =      1    electr: 0-lowe 1-rand  2-diag
   LASPH  =      T    aspherical Exc in radial PAW
   METAGGA=      F    non-selfconsistent MetaGGA calc.

 Electronic Relaxation 1
   ENCUT  =  500.0 eV  36.75 Ry    6.06 a.u.  23.65 22.31 36.48*2*pi/ulx,y,z
   ENINI  =  500.0     initial cutoff
   ENAUG  =  644.9 eV  augmentation charge cutoff
   NELM   =    250;   NELMIN=  2; NELMDL=  0     # of ELM steps
   EDIFF  = 0.1E-03   stopping-criterion for ELM
   LREAL  =      F    real-space projection
   NLSPLINE    = F    spline interpolate recip. space projectors
   LCOMPAT=      F    compatible to vasp.4.4
   GGA_COMPAT  = T    GGA compatible to vasp.4.4-vasp.4.6
   LMAXPAW     = -100 max onsite density
   LMAXMIX     =    2 max onsite mixed and CHGCAR
   VOSKOWN=      0    Vosko Wilk Nusair interpolation
   ROPT   =    0.00000   0.00000   0.00000   0.00000
 Ionic relaxation
   EDIFFG = -.3E-01   stopping-criterion for IOM
   NSW    =      0    number of steps for IOM
   NBLOCK =      1;   KBLOCK =      1    inner block; outer block
   IBRION =     -1    ionic relax: 0-MD 1-quasi-New 2-CG
   NFREE  =      1    steps in history (QN), initial steepest desc. (CG)
   ISIF   =      2    stress and relaxation
   IWAVPR =     10    prediction:  0-non 1-charg 2-wave 3-comb
   ISYM   =      3    0-nonsym 1-usesym 2-fastsym
   LCORR  =      T    Harris-Foulkes like correction to forces

   POTIM  = 0.5000    time-step for ionic-motion
   TEIN   =    0.0    initial temperature
   TEBEG  =    0.0;   TEEND  =   0.0 temperature during run
   SMASS  =  -3.00    Nose mass-parameter (am)
   estimated Nose-frequenzy (Omega)   =  0.10E-29 period in steps =****** mass=  -0.385E-26a.u.
   SCALEE = 1.0000    scale energy and forces
   NPACO  =    256;   APACO  = 16.0  distance and # of slots for P.C.
   PSTRESS=    0.0 pullay stress

  Mass of Ions in am
   POMASS =  12.01 14.00 58.69 55.85
  Ionic Valenz
   ZVAL   =   4.00  5.00 10.00  8.00
  Atomic Wigner-Seitz radii
  virtual crystal weights
   VCA    =   1.00  1.00  1.00  1.00
   NELECT =     249.0000    total number of electrons
   NUPDOWN=      -1.0000    fix difference up-down

 DOS related values:
   EMIN   =  10.00;   EMAX   =-10.00  energy-range for DOS
   EFERMI =   0.00
   ISMEAR =     0;   SIGMA  =   0.10  broadening in eV -4-tet -1-fermi 0-gaus

 Electronic relaxation 2 (details)
   IALGO  =     53    algorithm
   LDIAG  =      T    sub-space diagonalisation (order eigenvalues)
   LSUBROT=      F    optimize rotation matrix (better conditioning)
   TURBO    =      0    0=normal 1=particle mesh
   IRESTART =      0    0=no restart 2=restart with 2 vectors
   NREBOOT  =      0    no. of reboots
   NMIN     =      0    reboot dimension
   EREF     =   0.00    reference energy to select bands
   IMIX   =      4    mixing-type and parameters
     AMIX     =   0.40;   BMIX     =  1.00
     AMIX_MAG =   1.60;   BMIX_MAG =  1.00
     AMIN     =   0.10
[...]
   33        0.863   1.765   0.000   2.629
   34        0.870   1.777   0.000   2.647
   35        0.869   1.785   0.000   2.654
   36        0.867   1.783   0.000   2.650
   37        0.869   1.792   0.000   2.661
   38        0.867   1.784   0.000   2.651
   39        0.862   1.766   0.000   2.628
   40        0.870   1.780   0.000   2.650
   41        0.875   1.792   0.000   2.667
   42        0.867   1.782   0.000   2.650
   43        0.870   1.789   0.000   2.660
   44        0.869   1.777   0.000   2.647
   45        0.869   1.790   0.000   2.659
   46        0.870   1.778   0.000   2.648
   47        0.869   1.790   0.000   2.659
   48        0.867   1.784   0.000   2.651
   49        0.864   1.766   0.000   2.630
   50        1.231   2.659   0.000   3.890
   51        1.232   2.663   0.000   3.895
   52        1.227   2.649   0.000   3.876
   53        1.220   2.638   0.000   3.859
   54        1.252   2.566   0.000   3.819
   55        1.222   2.651   0.000   3.872
   56        1.228   2.653   0.000   3.881
   57        0.476   0.600   8.359   9.435
   58        0.445   0.606   6.248   7.299
tot         51.888 106.118  14.607 172.613

 magnetization (x)

[...]

  FORCE on cell =-STRESS in cart. coord.  units (eV):
  Direction    XX          YY          ZZ          XY          YZ          ZX
  Alpha Z   101.46370   101.46370   101.46370
  Ewald   49889.59985 50019.15268-58904.93320   -15.59665     0.07599    -1.81690
  Hartree 49454.72263 49491.35763-48766.91827   -14.69320     0.29210    -0.69812
  E(xc)    -738.36248  -738.02951  -752.92465    -0.14765    -0.00161    -0.00278
  Local  ************************104343.29942    29.38797    -0.49379     2.43854
  n-local  -147.26981  -142.82881  -131.13161    -0.17123     0.03462    -0.00402
  augment   181.80348   181.29046   208.18778     0.97012     0.06702    -0.03019
  Kinetic  3720.58150  3696.08192  4248.60628     0.36287     0.03120     0.08784
  Fock     -360.54786  -360.29683  -346.07825    -0.26680     0.00454     0.04334
  Total     -45.64987   -43.75257    -0.42880    -0.15457     0.01005     0.01772
  in kB     -23.02228   -22.06543    -0.21626    -0.07796     0.00507     0.00894

 VOLUME and BASIS-vectors are now :
  energy-cutoff  :      500.00
  volume of cell :     3176.89
      direct lattice vectors                 reciprocal lattice vectors
    12.974100000  0.000000000  0.000000000     0.077076637 -0.000061074 -0.000016141
     0.009697377 12.238296158  0.000000000     0.000000000  0.081710721 -0.000003124
     0.004190466  0.000764932 20.007999547     0.000000000  0.000000000  0.049980009

  length of vectors
    12.974100000 12.238300000 20.008000000     0.077076663  0.081710721  0.049980009

 FORCES acting on ions:
    Electron-Ion                     Ewald-Force                    Non-Local-Force
   0.304E+01 0.352E+01 -.170E+00   -.293E+01 -.355E+01 0.174E+00   -.835E-01 0.274E-02 -.631E-02
   0.597E+01 0.109E+02 -.496E+00   -.589E+01 -.112E+02 0.495E+00   -.109E+00 0.281E+00 -.162E-03
   -.580E+01 0.175E+01 -.353E+00   0.586E+01 -.178E+01 0.349E+00   -.974E-01 0.324E-02 0.197E-02
   0.128E+02 0.224E+02 0.727E+00   -.129E+02 -.226E+02 -.733E+00   0.103E+00 0.760E-01 0.696E-02
   0.243E+02 0.579E+02 0.615E+00   -.257E+02 -.611E+02 -.601E+00   0.137E+01 0.343E+01 -.122E-01
   0.172E+02 0.163E+02 -.109E+01   -.176E+02 -.165E+02 0.109E+01   0.304E+00 0.221E+00 0.236E-02
   0.656E+01 0.185E+02 -.345E+00   -.681E+01 -.188E+02 0.345E+00   0.218E+00 0.284E+00 -.742E-03
   0.529E+02 -.127E+02 -.303E+00   -.547E+02 0.156E+02 0.321E+00   0.165E+01 -.326E+01 -.204E-01
   0.146E+02 -.166E+01 -.250E+01   -.147E+02 0.169E+01 0.250E+01   0.125E+00 -.339E-02 -.721E-02
   0.276E+02 -.579E-02 -.181E+01   -.281E+02 0.293E+00 0.182E+01   0.518E+00 -.280E+00 -.105E-01
   0.616E+02 -.134E+02 0.932E+00   -.618E+02 0.134E+02 -.944E+00   0.106E+01 0.715E-01 0.112E-02
   0.389E+02 0.305E+01 -.110E+01   -.406E+02 -.591E+01 0.112E+01   0.169E+01 0.318E+01 -.166E-01
   0.132E+02 -.171E+02 -.142E+01   -.135E+02 0.173E+02 0.142E+01   0.285E+00 -.210E+00 -.116E-02
   0.246E+02 -.429E+01 -.235E+01   -.251E+02 0.400E+01 0.236E+01   0.483E+00 0.261E+00 -.114E-01
   0.119E+02 -.493E+02 -.630E+00   -.133E+02 0.525E+02 0.636E+00   0.138E+01 -.335E+01 -.100E-01
   0.446E+01 -.812E+01 -.610E+00   -.436E+01 0.842E+01 0.611E+00   -.996E-01 -.271E+00 -.248E-02
   0.400E+01 -.158E+02 -.990E+00   -.416E+01 0.161E+02 0.988E+00   0.148E+00 -.267E+00 -.978E-03
   0.833E+01 -.109E+02 -.301E+00   -.852E+01 0.109E+02 0.295E+00   0.115E+00 0.668E-02 0.274E-02
   -.354E+01 0.412E+01 -.135E+01   0.361E+01 -.410E+01 0.134E+01   -.127E+00 -.498E-02 0.283E-02
   0.282E+02 0.437E+02 0.568E+00   -.305E+02 -.463E+02 -.555E+00   0.242E+01 0.267E+01 -.121E-01
   0.147E+02 0.486E+01 -.788E+00   -.150E+02 -.486E+01 0.790E+00   0.343E+00 0.270E-01 -.785E-02
   -.168E+02 0.131E+02 -.112E+01   0.176E+02 -.130E+02 0.113E+01   -.656E+00 -.105E-01 -.902E-02
   -.485E+02 0.256E+02 0.208E+00   0.517E+02 -.257E+02 -.190E+00   -.326E+01 0.254E-02 -.185E-01
   -.432E+02 0.259E+02 0.489E+00   0.451E+02 -.283E+02 -.475E+00   -.166E+01 0.245E+01 -.129E-01
   -.307E+02 -.771E+01 0.678E+00   0.338E+02 0.774E+01 -.653E+00   -.329E+01 0.744E-01 -.238E-01
   -.272E+02 -.245E+02 -.467E+00   0.291E+02 0.268E+02 0.481E+00   -.176E+01 -.245E+01 -.173E-01
   -.354E+02 -.135E+02 -.121E+01   0.385E+02 0.137E+02 0.121E+01   -.324E+01 -.428E-01 -.140E-01
   0.283E+02 -.273E+02 -.567E+00   -.306E+02 0.298E+02 0.563E+00   0.243E+01 -.268E+01 -.237E-02
   -.134E+02 -.835E+01 -.181E+01   0.142E+02 0.831E+01 0.181E+01   -.671E+00 -.175E-02 -.141E-01
   -.700E+00 0.862E+00 -.647E+00   0.747E+00 -.862E+00 0.646E+00   -.937E-01 0.157E-02 0.228E-02
   -.534E+01 0.832E+01 -.124E+01   0.575E+01 -.830E+01 0.124E+01   -.377E+00 0.251E-01 -.931E-03
   -.108E+02 0.615E+00 -.112E+01   0.109E+02 -.612E+00 0.112E+01   -.106E+00 -.132E-01 -.281E-02
   -.796E+01 0.340E+01 -.809E+00   0.809E+01 -.343E+01 0.811E+00   -.107E+00 0.284E-01 -.269E-02
   0.951E+00 0.993E+01 -.105E+01   -.907E+00 -.100E+02 0.105E+01   -.274E-01 0.102E+00 0.140E-03
   -.197E+02 0.109E+02 -.538E+00   0.200E+02 -.114E+02 0.538E+00   -.367E+00 0.367E+00 -.298E-02
   -.122E+02 0.123E+01 -.107E+01   0.123E+02 -.161E+01 0.106E+01   -.129E+00 0.295E+00 -.237E-02
   0.264E+01 0.178E+01 -.126E+01   -.283E+01 -.187E+01 0.127E+01   0.227E+00 0.257E-01 -.154E-02
   0.794E+00 0.484E+01 -.135E+01   -.666E+00 -.491E+01 0.135E+01   -.173E+00 0.109E+00 -.180E-02
   -.138E+02 -.314E+01 -.497E+00   0.145E+02 0.315E+01 0.502E+00   -.497E+00 0.918E-02 -.845E-02
   -.138E+02 -.976E+00 -.710E+00   0.142E+02 0.960E+00 0.705E+00   -.321E+00 0.894E-01 0.328E-02
   0.685E+01 -.104E+01 -.179E+01   -.678E+01 0.103E+01 0.179E+01   -.788E-01 0.637E-02 -.204E-02
   0.610E+00 -.675E+01 -.988E+00   -.446E+00 0.684E+01 0.988E+00   -.169E+00 -.103E+00 0.148E-02
   -.165E+02 -.108E+02 -.550E+00   0.168E+02 0.113E+02 0.549E+00   -.424E+00 -.371E+00 -.492E-03
   -.113E+02 -.490E+00 -.567E+00   0.117E+02 0.458E+00 0.564E+00   -.326E+00 -.778E-01 0.123E-02
   0.272E+01 -.206E+01 -.714E+00   -.287E+01 0.212E+01 0.713E+00   0.179E+00 -.409E-01 0.486E-02
   0.214E+00 -.874E+01 -.226E+00   -.160E+00 0.884E+01 0.225E+00   -.638E-01 -.945E-01 0.632E-02
   -.400E+01 -.510E+01 -.119E+01   0.444E+01 0.512E+01 0.119E+01   -.395E+00 -.344E-01 0.219E-02
   -.988E+01 -.536E+00 -.606E+00   0.101E+02 0.925E+00 0.608E+00   -.165E+00 -.302E+00 0.372E-03
   -.821E+01 -.216E+01 -.365E+00   0.830E+01 0.219E+01 0.367E+00   -.100E+00 -.283E-01 0.167E-02
   0.177E+02 0.559E+02 0.238E+01   0.176E+01 -.547E+02 -.255E+01   -.186E+02 -.112E+01 0.166E+00
   -.195E+02 -.501E+02 0.564E+00   0.394E+02 0.490E+02 -.709E+00   -.191E+02 0.100E+01 0.134E+00
   0.234E+02 0.433E+02 0.263E+01   -.338E+02 -.262E+02 -.282E+01   0.976E+01 -.163E+02 0.191E+00
   -.166E+02 -.304E+02 0.263E+01   -.371E+01 0.298E+02 -.279E+01   0.193E+02 0.574E+00 0.156E+00
   -.635E+02 -.406E+02 0.852E+01   0.837E+02 0.412E+02 -.886E+01   -.197E+02 -.109E+01 0.339E+00
   0.120E+02 0.834E+01 0.150E+01   -.320E+02 -.788E+01 -.161E+01   0.192E+02 -.665E+00 0.109E+00
   0.358E+02 -.328E+01 -.238E+00   -.464E+02 -.141E+02 0.156E+00   0.101E+02 0.167E+02 0.780E-01
   -.278E+02 0.221E+02 0.965E+01   0.269E+02 -.195E+02 -.965E+01   0.111E+01 -.257E+01 -.242E-02
   -.193E+02 -.415E+02 0.619E+01   0.185E+02 0.395E+02 -.616E+01   0.924E+00 0.253E+01 -.134E-01
   0.116E+01 0.859E+00 -.104E+01   0.295E-12 -.306E-12 0.888E-15   -.918E+00 -.721E+00 0.940E+00

 POSITION                                       TOTAL-FORCE (eV/Angst)
      2.97346     12.23830     10.00008         0.021256     -0.023076     -0.002785
      0.76279      1.22164     10.00335        -0.020680      0.022299     -0.001280
      1.51671     12.23736     10.00257        -0.055436     -0.022222     -0.001666
      3.67192      1.27833      9.99580        -0.019398     -0.034174      0.001275
      2.90878      2.51703      9.99526         0.037889      0.371460      0.001215
      0.67167      3.65464     10.00489        -0.005898      0.027128     -0.000185
      1.45589      2.46169     10.00138        -0.039599     -0.030614     -0.000422
      2.74157      4.88366      9.99625        -0.043572     -0.486031     -0.003672
      0.63508      6.11435     10.00905        -0.012357      0.026367     -0.007563
      1.34395      4.88835     10.00506         0.098915     -0.015925     -0.005330
      3.44355      6.10881      9.99075         1.003737      0.080504     -0.010957
      2.74050      7.33885     10.00001         0.047130      0.483616     -0.006378
      0.67757      8.57758     10.00684        -0.019441     -0.028779     -0.001258
      1.34534      7.33942     10.00743         0.036297     -0.004875     -0.007068
      2.90904      9.72108     10.00123         0.038230     -0.346168     -0.005428
      0.77094     11.01700     10.00434         0.007250      0.011036     -0.001146
      1.46255      9.77423     10.00473        -0.017090      0.014238     -0.003038
      3.67961     10.95754     10.00052        -0.072431      0.039221     -0.003023
      7.24249      0.00289     10.00424        -0.067310      0.010107     -0.006471
      5.12409      1.28603      9.99504         0.231580      0.281915      0.000407
      5.81247      0.00378     10.00099         0.080964      0.023546     -0.006257
      7.96574      1.22779     10.00309         0.044869      0.062650     -0.004749
      7.23975      2.44833      9.99591        -0.270779     -0.111899     -0.002169
      7.94817      3.70143      9.99517         0.093287      0.206136      0.000242
      7.87844      6.11361      9.99400        -0.349606      0.107182     -0.000248
      7.96817      8.54507      9.99991         0.042271     -0.291487     -0.004124
      7.25920      9.79850     10.00258        -0.351251      0.169649     -0.008103
      5.13391     10.96454     10.00055         0.284238     -0.341499     -0.007117
      7.98072     11.01725     10.00623         0.042895     -0.053185     -0.006976
     11.56448      0.00103     10.00566        -0.042704      0.001977      0.001457
      9.39706      1.22037     10.00578         0.029881      0.046249     -0.002346
     10.12803      0.00229     10.00661         0.037102     -0.011712     -0.000175
     12.28875      1.22269     10.00559        -0.001140     -0.009660     -0.001071
     11.53288      2.43371     10.00637         0.023136      0.040825     -0.001875
      9.36530      3.66702     10.00171        -0.177324     -0.079865     -0.002824
     10.10080      2.43985     10.00531        -0.014332     -0.081980     -0.002649
     12.22351      3.66129     10.00682         0.043116     -0.069500     -0.000348
     11.49133      4.88920     10.00704        -0.050886      0.052822     -0.000570
      9.33173      6.11702     10.00102         0.195500      0.019385     -0.003522
     10.06828      4.89761     10.00342         0.048379      0.073336     -0.000909
     12.19971      6.11595     10.00858        -0.004071     -0.008927     -0.002233
     11.49529      7.34499     10.00637        -0.011968     -0.024085      0.002264
      9.38028      8.57492     10.00299        -0.186316      0.082850     -0.001486
     10.07283      7.33785     10.00351         0.000580     -0.107479     -0.001793
     12.23129      8.57339     10.00594         0.039896      0.027665      0.004414
     11.54431      9.80498     10.00465        -0.006988     -0.007154      0.006132
      9.41074     11.02234     10.00642         0.035578     -0.019362     -0.001106
     10.11462      9.80141     10.00485         0.007707      0.080005      0.002081
     12.29781     11.01652     10.00475        -0.018563     -0.000301      0.003667
      3.52103      3.75229      9.98993        -0.649295     -0.035557      0.008002
      3.52023      8.47505      9.99647        -0.811458     -0.006218      0.000629
      5.85924      2.46932      9.98961         0.290228     -0.519064      0.017927
      7.20855      4.89183      9.98890         0.577608      0.086107      0.010719
      4.78302      6.11102      9.97636        -1.235078     -0.563076      0.027143
      7.22627      7.35207      9.99294         0.886488     -0.259838      0.007981
      5.87498      9.78004      9.99875         0.363916      0.729232      0.002667
      5.34590      4.32809      9.98141        -0.062336      0.003437      0.017069
      5.36200      7.88897      9.98611        -0.072613      0.412765      0.015029
    total drift:                               -0.002830     -0.000350     -0.002255

  FREE ENERGIE OF THE ION-ELECTRON SYSTEM (eV)
  free  energy   TOTEN  =      -607.21097304 eV

  energy  without entropy=     -607.21066676  energy(sigma->0) =     -607.21081990

 stress matrix after NEB project (eV)
    -45.64987     -0.15507      0.01772
     -0.15457    -43.75257      0.01011
      0.01758      0.01005     -0.42880
  FORCES: max atom, RMS     1.357649    0.374570
  FORCE total and by dimension    2.852642    1.235078
  Stress total and by dimension   63.233149   45.649872
 writing wavefunctions

 total charge

[...]

 magnetization (x)

# of ion       s       p       d       tot
    1       -0.000  -0.002   0.000  -0.002
    2       -0.001  -0.006   0.000  -0.007
    3        0.002   0.024   0.000   0.026
    4        0.000   0.006   0.000   0.007
    5       -0.001  -0.008   0.000  -0.009
    6       -0.000   0.001   0.000   0.001
    7        0.001   0.010   0.000   0.011
    8        0.001   0.034   0.000   0.036
    9        0.002   0.026   0.000   0.027
   10       -0.001  -0.006   0.000  -0.007
   11       -0.002  -0.006   0.000  -0.008
   12        0.002   0.034   0.000   0.036
   13       -0.000  -0.003   0.000  -0.004
   14       -0.001  -0.006   0.000  -0.006
   15       -0.001  -0.017   0.000  -0.018
   16       -0.001  -0.006   0.000  -0.006
   17        0.001   0.013   0.000   0.013
   18        0.001   0.009   0.000   0.010
   19        0.000   0.008   0.000   0.008
   20       -0.001  -0.006   0.000  -0.006
   21        0.000   0.010   0.000   0.010
   22       -0.000   0.001   0.000   0.001
   23       -0.000   0.002   0.000   0.002
   24        0.001   0.015   0.000   0.016
   25       -0.000   0.001   0.000   0.001
   26        0.001   0.018   0.000   0.019
   27        0.000   0.007   0.000   0.007
   28       -0.001  -0.007   0.000  -0.008
   29       -0.000  -0.000   0.000  -0.000
   30       -0.000  -0.003   0.000  -0.003
   31       -0.000  -0.004   0.000  -0.004
   32        0.001   0.011   0.000   0.011
   33        0.000   0.006   0.000   0.006
   34       -0.000  -0.005   0.000  -0.005
   35       -0.000  -0.002   0.000  -0.002
   36        0.000   0.004   0.000   0.005
   37        0.001   0.012   0.000   0.013
   38        0.000   0.005   0.000   0.005
   39        0.000   0.009   0.000   0.009
   40        0.000   0.008   0.000   0.009
   41       -0.001  -0.003   0.000  -0.004
   42        0.000   0.006   0.000   0.006
   43       -0.001  -0.004   0.000  -0.005
   44        0.000   0.010   0.000   0.010
   45        0.001   0.013   0.000   0.014
   46       -0.001  -0.007   0.000  -0.007
   47       -0.000  -0.004   0.000  -0.004
   48        0.000   0.005   0.000   0.005
   49        0.000   0.006   0.000   0.006
   50        0.001   0.027   0.000   0.028
   51       -0.003   0.009   0.000   0.006
   52        0.000   0.010   0.000   0.011
   53        0.001   0.017   0.000   0.017
   54        0.002   0.132   0.000   0.134
   55       -0.003   0.002   0.000  -0.002
   56       -0.003  -0.002   0.000  -0.005
   57       -0.002   0.006   0.010   0.015
   58        0.040   0.022   2.027   2.089
tot          0.035   0.434   2.038   2.506