 vasp.5.4.4.18Apr17-6-g9f103f2a35 (build Feb 25 2019 10:51:38) complex

 executed on             LinuxIFC date 2021.03.10  00:19:08

 INCAR:
 POTCAR:    PAW_PBE C 08Apr2002
 POTCAR:    PAW_PBE N 08Apr2002
 POTCAR:    PAW_PBE Ni 02Aug2007
 POTCAR:    PAW_PBE Fe 06Sep2000

 POTCAR:    PAW_PBE C 08Apr2002
   VRHFIN =C: s2p2

   TITEL  = PAW_PBE C 08Apr2002
   POMASS =   12.011; ZVAL   =    4.000    mass and valenz
   ENMAX  =  400.000; ENMIN  =  300.000 eV

 POTCAR:    PAW_PBE N 08Apr2002
   VRHFIN =N: s2p3

   TITEL  = PAW_PBE N 08Apr2002
   POMASS =   14.001; ZVAL   =    5.000    mass and valenz
   ENMAX  =  400.000; ENMIN  =  300.000 eV

 POTCAR:    PAW_PBE Ni 02Aug2007
   VRHFIN =Ni:

   TITEL  = PAW_PBE Ni 02Aug2007
   POMASS =   58.690; ZVAL   =   10.000    mass and valenz
   ENMAX  =  269.532; ENMIN  =  202.149 eV

 POTCAR:    PAW_PBE Fe 06Sep2000
   VRHFIN =Fe:  d7 s1

   TITEL  = PAW_PBE Fe 06Sep2000
   POMASS =   55.847; ZVAL   =    8.000    mass and valenz
   ENMAX  =  267.882; ENMIN  =  200.911 eV

  PAW_PBE C 08Apr2002                   :
  PAW_PBE N 08Apr2002                   :
  PAW_PBE Ni 02Aug2007                  :
  PAW_PBE Fe 06Sep2000                  :

 POSCAR:  C  N Ni Fe
  positions in cartesian coordinates
 exchange correlation table for  LEXCH =        8
   RHO(1)=    0.500       N(1)  =     2000
   RHO(2)=  100.500       N(2)  =     4000

 VTST: version 3.2, (02/03/18)

 CHAIN: initializing optimizer

 OPT: Using VASP Conjugate-Gradient optimizer
 CHAIN: Read ICHAIN            0

 POSCAR:  C  N Ni Fe
  positions in cartesian coordinates

 ion  position               nearest neighbor table
   1  0.223  0.002  0.500-  19 1.42   3 1.43   4 1.44
   2  0.057  0.102  0.499-  36 1.43   3 1.43   7 1.44
   3  0.111  0.001  0.499-   1 1.43   2 1.43  17 1.43
   4  0.278  0.103  0.503-  21 1.42   5 1.44   1 1.44
   5  0.225  0.205  0.505-   7 1.44   4 1.44   8 1.45
   6  0.057  0.302  0.499-   7 1.43  40 1.43  11 1.43
   7  0.113  0.203  0.501-   6 1.43   5 1.44   2 1.44
   8  0.281  0.306  0.510-  25 1.45   5 1.45   9 1.46
   9  0.222  0.407  0.510-  53 1.37  11 1.43   8 1.46
  10  0.054  0.503  0.500-  14 1.43  11 1.43  44 1.44
  11  0.111  0.403  0.502-   6 1.43   9 1.43  10 1.43
  12  0.222  0.602  0.505-  53 1.38  14 1.44  15 1.45
  13  0.054  0.702  0.497-  14 1.42  18 1.43  48 1.44
  14  0.110  0.603  0.499-  13 1.42  10 1.43  12 1.44
  15  0.282  0.701  0.500-  56 1.42  16 1.44  12 1.45
  16  0.224  0.800  0.499-  15 1.44  18 1.44  19 1.44
  17  0.056  0.901  0.498-  18 1.43   3 1.43  52 1.43
  18  0.111  0.800  0.498-  13 1.43  17 1.43  16 1.44
  19  0.277  0.902  0.499-   1 1.42  30 1.43  16 1.44
  20  0.555  0.002  0.498-  32 1.42  23 1.42  22 1.42
  21  0.389  0.102  0.502-   4 1.42  26 1.43  22 1.43
  22  0.444  0.002  0.499-  20 1.42  21 1.43  30 1.43
  23  0.612  0.100  0.498-  24 1.41  20 1.42  34 1.42
  24  0.557  0.198  0.501-  23 1.41  27 1.41  26 1.43
  25  0.394  0.302  0.511-  54 1.39  26 1.43   8 1.45
  26  0.446  0.201  0.504-  24 1.43  21 1.43  25 1.43
  27  0.615  0.295  0.500-  28 1.39  24 1.41  38 1.41
  28  0.561  0.392  0.508-  54 1.37  55 1.37  27 1.39
  29  0.555  0.805  0.497-  57 1.38  32 1.41  31 1.43
  30  0.389  0.903  0.499-  31 1.41  19 1.43  22 1.43
  31  0.443  0.803  0.498-  56 1.40  30 1.41  29 1.43
  32  0.610  0.903  0.497-  29 1.41  20 1.42  50 1.43
  33  0.890  0.001  0.496-  52 1.43  35 1.43  36 1.44
  34  0.723  0.100  0.496-  35 1.42  23 1.42  39 1.43
  35  0.778  0.000  0.496-  34 1.42  50 1.42  33 1.43
  36  0.946  0.101  0.497-  37 1.43   2 1.43  33 1.44
  37  0.891  0.201  0.496-  39 1.42  36 1.43  40 1.43
  38  0.725  0.298  0.497-  27 1.41  39 1.41  43 1.43
  39  0.780  0.199  0.496-  38 1.41  37 1.42  34 1.43
  40  0.945  0.302  0.497-  37 1.43   6 1.43  41 1.43
  41  0.889  0.401  0.497-  43 1.43  44 1.43  40 1.43
  42  0.717  0.497  0.499-  55 1.39  43 1.43  47 1.45
  43  0.777  0.400  0.498-  38 1.43  41 1.43  42 1.43
  44  0.942  0.502  0.498-  41 1.43  10 1.44  45 1.44
  45  0.884  0.601  0.497-  48 1.44  44 1.44  47 1.46
  46  0.715  0.702  0.496-  57 1.39  51 1.44  47 1.44
  47  0.770  0.600  0.497-  46 1.44  42 1.45  45 1.46
  48  0.941  0.700  0.496-  49 1.42  45 1.44  13 1.44
  49  0.887  0.800  0.496-  48 1.42  51 1.43  52 1.44
  50  0.722  0.902  0.496-  35 1.42  32 1.43  51 1.43
  51  0.775  0.800  0.496-  50 1.43  49 1.43  46 1.44
  52  0.944  0.900  0.497-  33 1.43  17 1.43  49 1.44
  53  0.270  0.505  0.517-   9 1.37  12 1.38  58 1.87
  54  0.456  0.393  0.520-  28 1.37  25 1.39  58 1.87
  55  0.610  0.490  0.504-  28 1.37  42 1.39  59 1.88
  56  0.393  0.703  0.500-  31 1.40  15 1.42  59 1.96
  57  0.606  0.707  0.495-  29 1.38  46 1.39  59 1.87
  58  0.397  0.512  0.563-  54 1.87  53 1.87  59 2.19
  59  0.506  0.597  0.498-  57 1.87  55 1.88  56 1.96  58 2.19

  LATTYP: Found a simple orthorhombic cell.
 ALAT       =    12.4000000000
 B/A-ratio  =     1.0330645161
 C/A-ratio  =     1.6129032258

  Lattice vectors:

 A1 = (   0.0000000000, -12.4000000000,   0.0000000000)
 A2 = ( -12.8100000000,   0.0000000000,   0.0000000000)
 A3 = (   0.0000000000,   0.0000000000, -20.0000000000)

Analysis of symmetry for initial positions (statically):
 Subroutine PRICEL returns:
 Original cell was already a primitive cell.

 Routine SETGRP: Setting up the symmetry group for a
 simple orthorhombic supercell.

 Subroutine GETGRP returns: Found  1 space group operations
 (whereof  1 operations were pure point group operations)
 out of a pool of  8 trial point group operations.

The static configuration has the point symmetry C_1 .

Analysis of symmetry for dynamics (positions and initial velocities):
 Subroutine PRICEL returns:
 Original cell was already a primitive cell.

[...]

The dynamic configuration has the point symmetry C_1 .

Analysis of structural, dynamic, and magnetic symmetry:
 Subroutine PRICEL returns:
 Original cell was already a primitive cell.

 Routine SETGRP: Setting up the symmetry group for a
 simple orthorhombic supercell.

 Subroutine GETGRP returns: Found  1 space group operations
 (whereof  1 operations were pure point group operations)
 out of a pool of  8 trial point group operations.

The magnetic configuration has the point symmetry C_1 .

 Subroutine INISYM returns: Found  1 space group operations
 (whereof  1 operations are pure point group operations),
 and found     1 'primitive' translations

 KPOINTS: KPOINTS created by Atomic Simulation Env

Automatic generation of k-mesh.
Space group operators:
 irot       det(A)        alpha          n_x          n_y          n_z        tau_x        tau_y        tau_z
    1     1.000000     0.000000     1.000000     0.000000     0.000000     0.000000     0.000000     0.000000

 Subroutine IBZKPT returns following result:

 Found      2 irreducible k-points:

 Following reciprocal coordinates:
            Coordinates               Weight
  0.250000  0.250000  0.000000      2.000000
 -0.250000  0.250000  0.000000      2.000000

 Following cartesian coordinates:
            Coordinates               Weight
  0.019516  0.020161  0.000000      2.000000
 -0.019516  0.020161  0.000000      2.000000

 Subroutine IBZKPT_HF returns following result:

 Found      4 k-points in 1st BZ
 the following      4 k-points will be used (e.g. in the exchange kernel)
 Following reciprocal coordinates:   # in IRBZ
  0.250000  0.250000  0.000000    0.25000000   1 t-inv F
 -0.250000  0.250000  0.000000    0.25000000   2 t-inv F
 -0.250000 -0.250000  0.000000    0.25000000   1 t-inv T
  0.250000 -0.250000  0.000000    0.25000000   2 t-inv T

 SYSTEM =  unknown system
 POSCAR =   C  N Ni Fe

 Startparameter for this run:
   NWRITE =      2    write-flag & timer
   PREC   = accura    normal or accurate (medium, high low for compatibility)
   ISTART =      1    job   : 0-new  1-cont  2-samecut
   ICHARG =      0    charge: 1-file 2-atom 10-const
   ISPIN  =      2    spin polarized calculation?
   LNONCOLLINEAR =      F non collinear calculations
   LSORBIT =      F    spin-orbit coupling
   INIWAV =      1    electr: 0-lowe 1-rand  2-diag
   LASPH  =      T    aspherical Exc in radial PAW
   METAGGA=      F    non-selfconsistent MetaGGA calc.

 Electronic Relaxation 1
   ENCUT  =  500.0 eV  36.75 Ry    6.06 a.u.  23.36 22.61 36.46*2*pi/ulx,y,z
   ENINI  =  500.0     initial cutoff
   ENAUG  =  644.9 eV  augmentation charge cutoff
   NELM   =    250;   NELMIN=  2; NELMDL=  0     # of ELM steps
   EDIFF  = 0.1E-03   stopping-criterion for ELM
   LREAL  =      F    real-space projection
   NLSPLINE    = F    spline interpolate recip. space projectors
   LCOMPAT=      F    compatible to vasp.4.4
   GGA_COMPAT  = T    GGA compatible to vasp.4.4-vasp.4.6
   LMAXPAW     = -100 max onsite density
   LMAXMIX     =    2 max onsite mixed and CHGCAR
   VOSKOWN=      0    Vosko Wilk Nusair interpolation
   ROPT   =    0.00000   0.00000   0.00000   0.00000
 Ionic relaxation
   EDIFFG = -.3E-01   stopping-criterion for IOM
   NSW    =      0    number of steps for IOM
   NBLOCK =      1;   KBLOCK =      1    inner block; outer block
   IBRION =     -1    ionic relax: 0-MD 1-quasi-New 2-CG
   NFREE  =      1    steps in history (QN), initial steepest desc. (CG)
   ISIF   =      2    stress and relaxation
   IWAVPR =     10    prediction:  0-non 1-charg 2-wave 3-comb
   ISYM   =      3    0-nonsym 1-usesym 2-fastsym
   LCORR  =      T    Harris-Foulkes like correction to forces

   POTIM  = 0.5000    time-step for ionic-motion
   TEIN   =    0.0    initial temperature
   TEBEG  =    0.0;   TEEND  =   0.0 temperature during run
   SMASS  =  -3.00    Nose mass-parameter (am)
   estimated Nose-frequenzy (Omega)   =  0.10E-29 period in steps =****** mass=  -0.375E-26a.u.
   SCALEE = 1.0000    scale energy and forces
   NPACO  =    256;   APACO  = 16.0  distance and # of slots for P.C.
   PSTRESS=    0.0 pullay stress

  Mass of Ions in am
   POMASS =  12.01 14.00 58.69 55.85
  Ionic Valenz
   ZVAL   =   4.00  5.00 10.00  8.00
  Atomic Wigner-Seitz radii
  virtual crystal weights
   VCA    =   1.00  1.00  1.00  1.00
   NELECT =     251.0000    total number of electrons
   NUPDOWN=      -1.0000    fix difference up-down

 DOS related values:
   EMIN   =  10.00;   EMAX   =-10.00  energy-range for DOS
   EFERMI =   0.00
   ISMEAR =     0;   SIGMA  =   0.10  broadening in eV -4-tet -1-fermi 0-gaus

 Electronic relaxation 2 (details)
   IALGO  =     53    algorithm
   LDIAG  =      T    sub-space diagonalisation (order eigenvalues)
   LSUBROT=      F    optimize rotation matrix (better conditioning)
   TURBO    =      0    0=normal 1=particle mesh
   IRESTART =      0    0=no restart 2=restart with 2 vectors
   NREBOOT  =      0    no. of reboots
   NMIN     =      0    reboot dimension
   EREF     =   0.00    reference energy to select bands
   IMIX   =      4    mixing-type and parameters
     AMIX     =   0.40;   BMIX     =  1.00
     AMIX_MAG =   1.60;   BMIX_MAG =  1.00
     AMIN     =   0.10
     WC   =   100.;   INIMIX=   1;  MIXPRE=   1;  MAXMIX= -45

 Intra band minimization:
   WEIMIN = 0.0000     energy-eigenvalue tresh-hold
   EBREAK =  0.16E-06  absolut break condition
[...]
   41        0.867   1.760   0.000   2.626
   42        0.856   1.708   0.000   2.565
   43        0.864   1.782   0.000   2.646
   44        0.861   1.767   0.000   2.628
   45        0.858   1.736   0.000   2.594
   46        0.853   1.702   0.000   2.555
   47        0.849   1.753   0.000   2.602
   48        0.861   1.766   0.000   2.627
   49        0.864   1.755   0.000   2.619
   50        0.868   1.768   0.000   2.636
   51        0.861   1.768   0.000   2.629
   52        0.863   1.762   0.000   2.625
   53        1.228   2.688   0.000   3.916
   54        1.226   2.696   0.000   3.922
   55        1.230   2.699   0.000   3.929
   56        1.216   2.648   0.000   3.863
   57        1.225   2.680   0.000   3.905
   58        0.439   0.401   8.530   9.370
   59        0.470   0.565   6.320   7.354
tot         51.921 105.984  14.849 172.754

 magnetization (x)

[...]

  FORCE on cell =-STRESS in cart. coord.  units (eV):
  Direction    XX          YY          ZZ          XY          YZ          ZX
  Alpha Z   103.74149   103.74149   103.74149
  Ewald   49879.53308 49833.57777-58475.74756    20.37230    12.14207   -93.27697
  Hartree 49424.90163 49424.70347-48498.14374    -7.06675   -28.88418   -80.93323
  E(xc)    -740.09061  -740.34598  -754.69021     0.07899     0.34103     0.15242
  Local  ************************103661.08349    -5.11191    28.00128   177.92521
  n-local  -129.15076  -129.80675  -122.85534     2.99969    -2.77294    -1.13860
  augment   182.39037   187.65630   192.10881     1.97953    -4.81754    -2.38595
  Kinetic  3698.19208  3712.82401  4236.73810   -22.11686    -5.44856    -1.27606
  Fock     -365.44404  -367.85911  -342.49110    -1.31133     0.83535     0.45478
  Total     -42.99831   -38.92327    -0.25605   -10.17634    -0.60348    -0.47841
  in kB     -21.68509   -19.62995    -0.12913    -5.13217    -0.30435    -0.24127

 VOLUME and BASIS-vectors are now :
  energy-cutoff  :      500.00
  volume of cell :     3176.88
      direct lattice vectors                 reciprocal lattice vectors
    12.810000000  0.000000000  0.000000000     0.078064012  0.000000000  0.000000000
     0.000000000 12.400000000  0.000000000     0.000000000  0.080645161  0.000000000
     0.000000000  0.000000000 20.000000000     0.000000000  0.000000000  0.050000000

  length of vectors
    12.810000000 12.400000000 20.000000000     0.078064012  0.080645161  0.050000000

 FORCES acting on ions:
    Electron-Ion                     Ewald-Force                    Non-Local-Force
   0.685E+01 -.633E+01 0.399E+01   -.688E+01 0.618E+01 -.403E+01   0.144E+00 -.635E-01 0.361E-01
   0.366E-01 -.566E+00 0.649E+01   0.151E+00 0.484E+00 -.652E+01   -.151E+00 0.587E-01 0.263E-01
   0.712E+01 0.323E+00 0.444E+01   -.713E+01 -.415E+00 -.439E+01   -.837E-01 0.679E-01 -.534E-01
   0.150E+02 0.564E+01 -.177E+01   -.152E+02 -.576E+01 0.184E+01   0.294E+00 0.187E+00 -.726E-01
   0.102E+02 0.889E+01 -.705E+01   -.103E+02 -.902E+01 0.700E+01   0.417E-01 0.715E-01 0.368E-01
   0.656E+01 0.748E+01 0.150E+02   -.646E+01 -.784E+01 -.151E+02   -.269E-01 0.345E+00 0.798E-01
   0.612E+01 0.967E+01 0.334E+01   -.617E+01 -.977E+01 -.329E+01   -.242E-02 0.108E+00 -.517E-01
   0.254E+02 0.286E+02 -.191E+02   -.256E+02 -.288E+02 0.191E+02   0.275E+00 0.874E-01 0.339E-02
   0.414E+02 0.570E+02 -.220E+01   -.432E+02 -.599E+02 0.168E+01   0.175E+01 0.328E+01 0.571E+00
   0.200E+02 0.140E+01 0.146E+02   -.202E+02 -.123E+01 -.144E+02   0.232E+00 -.137E+00 -.165E+00
   0.228E+02 0.139E+02 0.184E+02   -.233E+02 -.143E+02 -.185E+02   0.419E+00 0.265E+00 0.167E+00
   0.448E+02 -.459E+02 0.253E+02   -.466E+02 0.493E+02 -.262E+02   0.167E+01 -.312E+01 0.886E+00
   0.143E+02 -.953E+01 0.231E+02   -.144E+02 0.980E+01 -.231E+02   0.237E+00 -.259E+00 0.704E-01
   0.238E+02 -.925E+01 0.238E+02   -.241E+02 0.988E+01 -.239E+02   0.188E+00 -.531E+00 0.137E+00
   0.437E+02 -.203E+02 0.301E+02   -.468E+02 0.202E+02 -.305E+02   0.281E+01 -.427E-01 0.311E+00
   0.209E+02 -.159E+02 0.185E+02   -.211E+02 0.157E+02 -.185E+02   0.251E+00 -.973E-01 0.752E-01
   0.392E+01 -.390E+01 0.988E+01   -.377E+01 0.396E+01 -.992E+01   -.113E+00 0.131E-02 0.334E-01
   0.860E+01 -.883E+01 0.144E+02   -.884E+01 0.864E+01 -.143E+02   0.174E+00 0.930E-01 -.102E+00
   0.161E+02 -.107E+02 0.105E+02   -.164E+02 0.111E+02 -.105E+02   0.266E+00 -.232E+00 0.617E-01
   -.240E+01 -.544E+01 0.113E+02   0.209E+01 0.545E+01 -.112E+02   0.281E+00 -.861E-01 -.634E-01
   0.664E+01 0.735E+01 0.645E+01   -.716E+01 -.775E+01 -.648E+01   0.416E+00 0.389E+00 0.370E-01
   0.549E+01 -.559E+01 0.100E+02   -.531E+01 0.557E+01 -.101E+02   -.990E-01 0.253E-02 0.440E-01
   -.961E+01 0.820E+01 0.161E+02   0.976E+01 -.864E+01 -.162E+02   -.105E+00 0.503E+00 0.730E-01
   -.382E+01 0.231E+02 0.123E+02   0.372E+01 -.238E+02 -.120E+02   0.131E+00 0.661E+00 -.221E+00
   0.380E+02 0.577E+02 -.796E+01   -.405E+02 -.611E+02 0.728E+01   0.248E+01 0.320E+01 0.658E+00
   0.777E+01 0.275E+02 0.898E+01   -.812E+01 -.281E+02 -.911E+01   0.280E+00 0.556E+00 0.159E+00
   -.255E+02 0.334E+02 0.260E+02   0.263E+02 -.346E+02 -.263E+02   -.660E+00 0.112E+01 0.295E+00
   -.450E+02 0.509E+02 0.386E+01   0.472E+02 -.546E+02 -.447E+01   -.231E+01 0.358E+01 0.631E+00
   -.145E+01 -.509E+02 0.209E+02   -.491E+00 0.540E+02 -.209E+02   0.174E+01 -.305E+01 -.546E-02
   0.972E+01 -.228E+02 0.953E+01   -.971E+01 0.230E+02 -.946E+01   0.136E+00 -.324E+00 -.783E-01
   0.720E+00 -.513E+02 0.183E+02   0.520E+00 0.542E+02 -.184E+02   -.104E+01 -.262E+01 0.113E+00
   -.130E+02 -.189E+02 0.136E+02   0.129E+02 0.195E+02 -.136E+02   0.553E-01 -.429E+00 -.286E-02
   -.587E+01 -.201E+01 0.135E+02   0.604E+01 0.195E+01 -.135E+02   -.123E+00 0.367E-01 0.123E-01
   -.996E+01 0.351E+01 0.189E+02   0.999E+01 -.364E+01 -.189E+02   -.930E-01 0.150E+00 -.201E-02
   -.103E+02 0.124E+00 0.161E+02   0.104E+02 -.152E+00 -.162E+02   -.219E+00 -.370E-01 0.289E-01
   -.175E+01 0.449E+01 0.131E+02   0.192E+01 -.465E+01 -.131E+02   -.166E+00 0.130E+00 0.238E-01
   -.802E+01 0.345E+01 0.185E+02   0.829E+01 -.351E+01 -.185E+02   -.248E+00 0.104E+00 0.101E-01
   -.239E+02 0.112E+02 0.266E+02   0.245E+02 -.114E+02 -.267E+02   -.695E+00 0.162E+00 0.174E+00
   -.122E+02 0.102E+02 0.232E+02   0.124E+02 -.105E+02 -.232E+02   -.253E+00 0.307E+00 0.436E-01
   -.165E+01 0.341E+01 0.187E+02   0.174E+01 -.349E+01 -.187E+02   -.141E+00 0.496E-01 0.508E-01
   -.902E+01 0.265E+01 0.171E+02   0.950E+01 -.248E+01 -.171E+02   -.384E+00 -.121E+00 0.211E-01
   -.590E+02 -.112E+02 0.130E+02   0.632E+02 0.117E+02 -.131E+02   -.404E+01 -.539E+00 0.148E+00
   -.259E+02 0.276E+01 0.168E+02   0.265E+02 -.282E+01 -.168E+02   -.583E+00 0.133E+00 -.236E-01
   0.954E-01 -.276E+01 0.147E+02   -.268E+00 0.303E+01 -.147E+02   0.116E+00 -.281E+00 -.129E-01
   -.135E+01 -.285E+01 0.165E+02   0.148E+01 0.309E+01 -.165E+02   -.265E-01 -.147E+00 0.227E-01
   -.521E+02 -.680E+00 0.180E+02   0.556E+02 0.507E+00 -.179E+02   -.361E+01 0.263E+00 -.903E-01
   -.250E+02 -.458E+01 0.169E+02   0.252E+02 0.482E+01 -.169E+02   -.249E+00 -.249E+00 0.441E-01
   -.198E+01 -.985E+00 0.187E+02   0.203E+01 0.881E+00 -.187E+02   -.149E+00 0.589E-01 0.151E-01
   -.562E+01 -.680E+01 0.139E+02   0.590E+01 0.659E+01 -.139E+02   -.293E+00 0.131E+00 0.170E-01
   -.154E+02 -.934E+01 0.145E+02   0.157E+02 0.961E+01 -.145E+02   -.250E+00 -.160E+00 0.463E-01
   -.206E+02 -.353E+01 0.135E+02   0.210E+02 0.364E+01 -.136E+02   -.412E+00 -.181E+00 -.718E-03
   -.201E+01 0.133E+01 0.115E+02   0.210E+01 -.132E+01 -.115E+02   -.121E+00 0.308E-01 -.122E-01
   0.515E+02 0.575E+01 -.215E+02   -.324E+02 -.544E+01 0.243E+02   -.179E+02 -.424E+00 -.291E+01
   0.972E+01 0.600E+02 -.495E+02   -.189E+02 -.446E+02 0.538E+02   0.890E+01 -.145E+02 -.428E+01
   -.608E+02 -.288E+02 0.465E+01   0.519E+02 0.454E+02 -.363E+01   0.859E+01 -.159E+02 -.862E+00
   0.260E+02 -.765E+01 0.490E+02   -.167E+02 -.876E+01 -.501E+02   -.878E+01 0.153E+02 0.121E+01
   -.406E+02 0.399E+01 0.493E+02   0.321E+02 -.188E+02 -.509E+02   0.838E+01 0.141E+02 0.139E+01
   0.240E+02 -.659E+02 -.903E+03   -.280E+02 0.596E+02 0.897E+03   0.296E+01 0.595E+01 0.825E+01
   -.198E+02 -.244E+02 0.193E+03   0.238E+02 0.292E+02 -.192E+03   -.414E+01 -.433E+01 -.201E+01
   0.390E+01 -.376E+01 -.428E+01   0.654E-12 0.441E-12 -.284E-12   -.427E+01 0.364E+01 0.500E+01

 POSITION                                       TOTAL-FORCE (eV/Angst)
      2.85150      0.02549     10.00596         0.118163     -0.227912     -0.001511
      0.73559      1.26538      9.98041         0.024385     -0.026013     -0.001528
      1.42648      0.01699      9.98385        -0.094769     -0.016327     -0.007013
      3.56365      1.27952     10.05305         0.090907      0.088289     -0.003671
      2.88019      2.54199     10.09885         0.033228     -0.061098     -0.005822
      0.72538      3.74954      9.98947         0.070816      0.003076      0.018340
      1.44634      2.51774     10.02509        -0.050452      0.023552     -0.005399
      3.60326      3.79523     10.20728         0.091246     -0.122637     -0.024687
      2.84054      5.04250     10.19526         0.105788      0.517323      0.078271
      0.69257      6.23829      9.99272         0.057237      0.020606      0.003963
      1.41715      5.00071     10.03369        -0.029933     -0.063539      0.030001
      2.84046      7.46590     10.09374        -0.001100      0.052898      0.043624
      0.68672      8.70025      9.93738         0.102927     -0.011244      0.034951
      1.40909      7.47754      9.98891        -0.057683      0.072804      0.056089
      3.61400      8.69459     10.00927        -0.192943     -0.059475      0.006857
      2.86430      9.92191      9.97212         0.025730     -0.206831      0.010317
      0.71653     11.17179      9.95310         0.028920      0.066438     -0.002767
      1.42411      9.92600      9.95412        -0.056878     -0.089634      0.000621
      3.55291     11.18773      9.98407        -0.101556      0.239976      0.006683
      7.11231      0.02004      9.95896        -0.010541     -0.084316      0.000486
      4.98209      1.26245     10.03382        -0.081053      0.007455      0.003013
      5.69248      0.02670      9.98627         0.076211     -0.026110     -0.003111
      7.84335      1.23470      9.95391         0.034442      0.098128      0.010215
      7.13624      2.45447     10.01350         0.044162     -0.009845      0.009410
      5.04976      3.74138     10.22445         0.119013      0.002767      0.020108
      5.71223      2.48665     10.07545        -0.062836      0.060620      0.039427
      7.87387      3.65865     10.00388         0.053334      0.016006      0.039493
      7.18034      4.85921     10.15098        -0.190406      0.085902      0.055489
      7.10488      9.97759      9.93281        -0.103415     -0.053859      0.008637
      4.97891     11.19108      9.98240         0.152857     -0.095139     -0.011770
      5.67625      9.96141      9.96860         0.151594      0.067385      0.027219
      7.81895     11.19332      9.93539        -0.087438      0.076692     -0.005661
     11.40125      0.00925      9.92265         0.044747     -0.029057      0.000656
      9.26781      1.24080      9.91929        -0.072926      0.028426      0.015654
      9.97234      0.00411      9.91360        -0.062500     -0.064147      0.003822
     12.11972      1.25172      9.93694        -0.003375     -0.022309      0.002342
     11.41270      2.48915      9.92235         0.002348      0.045291      0.010888
      9.28535      3.69798      9.93697        -0.077944     -0.020036      0.038823
      9.99052      2.47223      9.91308        -0.034861      0.021551      0.014605
     12.10612      3.73951      9.93983        -0.049979     -0.026820      0.013155
     11.38170      4.97676      9.94061         0.076250      0.049022      0.014174
      9.18704      6.16585      9.98990        -0.110910     -0.066401      0.006806
      9.95558      4.95638      9.95274        -0.047885      0.074903     -0.005606
     12.06809      6.22889      9.95117        -0.052488     -0.029831     -0.002121
     11.31876      7.45453      9.93158         0.118961      0.087264      0.005695
      9.15650      8.70195      9.92288        -0.320240      0.108433      0.001371
      9.86288      7.44214      9.94074        -0.001597     -0.022645      0.014451
     12.05726      8.68546      9.92112        -0.113705     -0.035025      0.006865
     11.35701      9.92485      9.92043        -0.018180     -0.078728     -0.001124
      9.24477     11.17920      9.91882        -0.034162      0.101073     -0.002222
      9.92258      9.92382      9.91969         0.032814     -0.077371     -0.006581
     12.09290     11.16327      9.93040        -0.035143      0.051345     -0.004113
      3.46193      6.25715     10.33621        -0.444140     -0.149685     -0.357387
      5.83651      4.87291     10.39090         0.480507     -0.317310     -0.312916
      7.80774      6.07955     10.08164         0.423768     -0.759175      0.092282
      5.03242      8.72026      9.99241        -0.254085      0.226605      0.157860
      7.76733      8.76184      9.90273         0.596650      0.493939     -0.035384
      5.08838      6.35263     11.25884        -0.449986     -0.311308      0.303290
      6.48411      7.40852      9.95034         0.148102      0.376056     -0.405555
    total drift:                                0.002795     -0.006262     -0.004656

  FREE ENERGIE OF THE ION-ELECTRON SYSTEM (eV)
  free  energy   TOTEN  =      -616.42689464 eV

  energy  without entropy=     -616.42639176  energy(sigma->0) =     -616.42664320

 stress matrix after NEB project (eV)
    -42.99831    -10.17685     -0.47841
    -10.17634    -38.92327     -0.59738
     -0.47849     -0.60348     -0.25605
  FORCES: max atom, RMS     0.874323    0.262669
  FORCE total and by dimension    2.017601    0.759175
  Stress total and by dimension   59.768271   42.998308
 writing wavefunctions
 vacuum level on the upper side and lower side of the slab         1.405         1.598

 total charge

[...]

 magnetization (x)

# of ion       s       p       d       tot
    1       -0.000  -0.001   0.000  -0.002
    2       -0.000  -0.002   0.000  -0.003
    3        0.000   0.004   0.000   0.004
    4        0.000   0.002   0.000   0.002
    5       -0.000  -0.003   0.000  -0.003
    6       -0.000  -0.004   0.000  -0.004
    7        0.000   0.004   0.000   0.005
    8        0.000   0.005   0.000   0.006
    9       -0.001  -0.006   0.000  -0.007
   10       -0.000  -0.002   0.000  -0.002
   11        0.001   0.006   0.000   0.007
   12        0.000   0.001   0.000   0.001
   13       -0.000  -0.001   0.000  -0.001
   14        0.001   0.003   0.000   0.004
   15        0.001   0.006   0.000   0.007
   16       -0.000  -0.002   0.000  -0.002
   17       -0.000  -0.003   0.000  -0.003
   18        0.000   0.004   0.000   0.004
   19        0.000   0.002   0.000   0.003
   20        0.000   0.002   0.000   0.003
   21       -0.000  -0.001   0.000  -0.001
   22       -0.000  -0.000   0.000  -0.000
   23        0.000   0.002   0.000   0.002
   24       -0.000  -0.002   0.000  -0.002
   25       -0.001  -0.005   0.000  -0.006
   26        0.001   0.004   0.000   0.004
   27        0.000   0.002   0.000   0.002
   28        0.000   0.004   0.000   0.004
   29        0.000   0.007   0.000   0.007
   30       -0.000  -0.001   0.000  -0.001
   31       -0.000  -0.000   0.000  -0.000
   32       -0.000  -0.001   0.000  -0.002
   33       -0.000  -0.003   0.000  -0.003
   34       -0.000   0.000   0.000   0.000
   35        0.000   0.001   0.000   0.002
   36        0.000   0.004   0.000   0.004
   37       -0.000  -0.003   0.000  -0.003
   38        0.000   0.002   0.000   0.002
   39        0.000   0.001   0.000   0.001
   40        0.000   0.003   0.000   0.003
   41       -0.000  -0.003   0.000  -0.004
   42       -0.000   0.001   0.000   0.001
   43        0.000   0.002   0.000   0.002
   44        0.000   0.003   0.000   0.004
   45       -0.000  -0.002   0.000  -0.002
   46       -0.000  -0.002   0.000  -0.002
   47        0.000   0.003   0.000   0.003
   48        0.000   0.004   0.000   0.005
   49       -0.000  -0.001   0.000  -0.002
   50       -0.000  -0.003   0.000  -0.004
   51       -0.000   0.003   0.000   0.002
   52        0.000   0.002   0.000   0.003
   53        0.008   0.048   0.000   0.056
   54        0.006   0.029   0.000   0.035
   55       -0.003  -0.018   0.000  -0.021
   56       -0.003  -0.006   0.000  -0.009
   57       -0.006  -0.041   0.000  -0.047
   58       -0.011   0.032   0.898   0.919
   59        0.012   0.003   1.837   1.851
tot          0.004   0.086   2.735   2.824